NAME QuadraticMultiKnapsack-pet5-1-21-7
ROWS
 N profit
 G LEADERCONS0 
 G LEADERCONS1 
 G LEADERCONS2 
 G LEADERCONS3 
 G LEADERCONS4 
 G LEADERCONS5 
 G LEADERCONS6 
 G LEADERCONS7 
 G LEADERCONS8 
 G FOLLOWERCONS0 
COLUMNS
 x0 profit 100 
 x0 FOLLOWERCONS0 3.0
 x0 LEADERCONS0 8.0
 x0 LEADERCONS1 8.0
 x0 LEADERCONS2 3.0
 x0 LEADERCONS3 5.0
 x0 LEADERCONS4 5.0
 x0 LEADERCONS5 5.0
 x0 LEADERCONS6 0.0
 x0 LEADERCONS7 3.0
 x0 LEADERCONS8 3.0
 x1 profit 220 
 x1 FOLLOWERCONS0 8.0
 x1 LEADERCONS0 24.0
 x1 LEADERCONS1 44.0
 x1 LEADERCONS2 6.0
 x1 LEADERCONS3 9.0
 x1 LEADERCONS4 11.0
 x1 LEADERCONS5 11.0
 x1 LEADERCONS6 0.0
 x1 LEADERCONS7 4.0
 x1 LEADERCONS8 6.0
 x2 profit 90 
 x2 FOLLOWERCONS0 9.0
 x2 LEADERCONS0 13.0
 x2 LEADERCONS1 13.0
 x2 LEADERCONS2 4.0
 x2 LEADERCONS3 6.0
 x2 LEADERCONS4 7.0
 x2 LEADERCONS5 7.0
 x2 LEADERCONS6 1.0
 x2 LEADERCONS7 5.0
 x2 LEADERCONS8 9.0
 x3 profit 400 
 x3 FOLLOWERCONS0 35.0
 x3 LEADERCONS0 80.0
 x3 LEADERCONS1 100.0
 x3 LEADERCONS2 20.0
 x3 LEADERCONS3 40.0
 x3 LEADERCONS4 50.0
 x3 LEADERCONS5 55.0
 x3 LEADERCONS6 10.0
 x3 LEADERCONS7 20.0
 x3 LEADERCONS8 30.0
 x4 profit 300 
 x4 FOLLOWERCONS0 29.0
 x4 LEADERCONS0 70.0
 x4 LEADERCONS1 100.0
 x4 LEADERCONS2 20.0
 x4 LEADERCONS3 30.0
 x4 LEADERCONS4 40.0
 x4 LEADERCONS5 40.0
 x4 LEADERCONS6 4.0
 x4 LEADERCONS7 14.0
 x4 LEADERCONS8 29.0
 x5 profit 400 
 x5 FOLLOWERCONS0 20.0
 x5 LEADERCONS0 80.0
 x5 LEADERCONS1 90.0
 x5 LEADERCONS2 30.0
 x5 LEADERCONS3 40.0
 x5 LEADERCONS4 40.0
 x5 LEADERCONS5 40.0
 x5 LEADERCONS6 10.0
 x5 LEADERCONS7 20.0
 x5 LEADERCONS8 20.0
 x6 profit 205 
 x6 FOLLOWERCONS0 16.0
 x6 LEADERCONS0 45.0
 x6 LEADERCONS1 75.0
 x6 LEADERCONS2 8.0
 x6 LEADERCONS3 16.0
 x6 LEADERCONS4 19.0
 x6 LEADERCONS5 21.0
 x6 LEADERCONS6 0.0
 x6 LEADERCONS7 6.0
 x6 LEADERCONS8 12.0
 x7 profit 120 
 x7 FOLLOWERCONS0 15.0
 x7 LEADERCONS0 15.0
 x7 LEADERCONS1 25.0
 x7 LEADERCONS2 3.0
 x7 LEADERCONS3 5.0
 x7 LEADERCONS4 7.0
 x7 LEADERCONS5 9.0
 x7 LEADERCONS6 6.0
 x7 LEADERCONS7 12.0
 x7 LEADERCONS8 12.0
 x8 profit 160 
 x8 FOLLOWERCONS0 10.0
 x8 LEADERCONS0 28.0
 x8 LEADERCONS1 28.0
 x8 LEADERCONS2 12.0
 x8 LEADERCONS3 18.0
 x8 LEADERCONS4 18.0
 x8 LEADERCONS5 18.0
 x8 LEADERCONS6 0.0
 x8 LEADERCONS7 10.0
 x8 LEADERCONS8 10.0
 x9 profit 580 
 x9 FOLLOWERCONS0 30.0
 x9 LEADERCONS0 90.0
 x9 LEADERCONS1 120.0
 x9 LEADERCONS2 14.0
 x9 LEADERCONS3 24.0
 x9 LEADERCONS4 29.0
 x9 LEADERCONS5 29.0
 x9 LEADERCONS6 6.0
 x9 LEADERCONS7 18.0
 x9 LEADERCONS8 30.0
 x10 profit 400 
 x10 FOLLOWERCONS0 42.0
 x10 LEADERCONS0 130.0
 x10 LEADERCONS1 130.0
 x10 LEADERCONS2 40.0
 x10 LEADERCONS3 60.0
 x10 LEADERCONS4 70.0
 x10 LEADERCONS5 70.0
 x10 LEADERCONS6 32.0
 x10 LEADERCONS7 42.0
 x10 LEADERCONS8 42.0
 x11 profit 140 
 x11 FOLLOWERCONS0 20.0
 x11 LEADERCONS0 32.0
 x11 LEADERCONS1 32.0
 x11 LEADERCONS2 6.0
 x11 LEADERCONS3 16.0
 x11 LEADERCONS4 21.0
 x11 LEADERCONS5 21.0
 x11 LEADERCONS6 3.0
 x11 LEADERCONS7 9.0
 x11 LEADERCONS8 18.0
 x12 profit 100 
 x12 FOLLOWERCONS0 18.0
 x12 LEADERCONS0 20.0
 x12 LEADERCONS1 40.0
 x12 LEADERCONS2 3.0
 x12 LEADERCONS3 11.0
 x12 LEADERCONS4 17.0
 x12 LEADERCONS5 17.0
 x12 LEADERCONS6 0.0
 x12 LEADERCONS7 12.0
 x12 LEADERCONS8 18.0
 x13 profit 1300 
 x13 FOLLOWERCONS0 120.0
 x13 LEADERCONS0 120.0
 x13 LEADERCONS1 160.0
 x13 LEADERCONS2 20.0
 x13 LEADERCONS3 30.0
 x13 LEADERCONS4 30.0
 x13 LEADERCONS5 35.0
 x13 LEADERCONS6 70.0
 x13 LEADERCONS7 100.0
 x13 LEADERCONS8 110.0
 x14 profit 650 
 x14 FOLLOWERCONS0 20.0
 x14 LEADERCONS0 40.0
 x14 LEADERCONS1 40.0
 x14 LEADERCONS2 5.0
 x14 LEADERCONS3 25.0
 x14 LEADERCONS4 25.0
 x14 LEADERCONS5 25.0
 x14 LEADERCONS6 10.0
 x14 LEADERCONS7 20.0
 x14 LEADERCONS8 20.0
 x15 profit 320 
 x15 FOLLOWERCONS0 20.0
 x15 LEADERCONS0 30.0
 x15 LEADERCONS1 60.0
 x15 LEADERCONS2 0.0
 x15 LEADERCONS3 10.0
 x15 LEADERCONS4 15.0
 x15 LEADERCONS5 20.0
 x15 LEADERCONS6 0.0
 x15 LEADERCONS7 5.0
 x15 LEADERCONS8 15.0
 x16 profit 480 
 x16 FOLLOWERCONS0 22.0
 x16 LEADERCONS0 20.0
 x16 LEADERCONS1 55.0
 x16 LEADERCONS2 5.0
 x16 LEADERCONS3 13.0
 x16 LEADERCONS4 25.0
 x16 LEADERCONS5 25.0
 x16 LEADERCONS6 0.0
 x16 LEADERCONS7 6.0
 x16 LEADERCONS8 18.0
 x17 profit 80 
 x17 FOLLOWERCONS0 7.0
 x17 LEADERCONS0 6.0
 x17 LEADERCONS1 10.0
 x17 LEADERCONS2 3.0
 x17 LEADERCONS3 5.0
 x17 LEADERCONS4 5.0
 x17 LEADERCONS5 5.0
 x17 LEADERCONS6 0.0
 x17 LEADERCONS7 4.0
 x17 LEADERCONS8 7.0
 x18 profit 60 
 x18 FOLLOWERCONS0 3.0
 x18 LEADERCONS0 3.0
 x18 LEADERCONS1 6.0
 x18 LEADERCONS2 0.0
 x18 LEADERCONS3 1.0
 x18 LEADERCONS4 1.0
 x18 LEADERCONS5 2.0
 x18 LEADERCONS6 0.0
 x18 LEADERCONS7 1.0
 x18 LEADERCONS8 2.0
 x19 profit 2550 
 x19 FOLLOWERCONS0 50.0
 x19 LEADERCONS0 180.0
 x19 LEADERCONS1 240.0
 x19 LEADERCONS2 20.0
 x19 LEADERCONS3 80.0
 x19 LEADERCONS4 100.0
 x19 LEADERCONS5 110.0
 x19 LEADERCONS6 0.0
 x19 LEADERCONS7 20.0
 x19 LEADERCONS8 40.0
 x20 profit 3100 
 x20 FOLLOWERCONS0 60.0
 x20 LEADERCONS0 220.0
 x20 LEADERCONS1 290.0
 x20 LEADERCONS2 30.0
 x20 LEADERCONS3 60.0
 x20 LEADERCONS4 70.0
 x20 LEADERCONS5 70.0
 x20 LEADERCONS6 30.0
 x20 LEADERCONS7 50.0
 x20 LEADERCONS8 60.0
 y0 profit 1100 
 y0 FOLLOWERCONS0 55.0
 y0 LEADERCONS0 50.0
 y0 LEADERCONS1 80.0
 y0 LEADERCONS2 40.0
 y0 LEADERCONS3 50.0
 y0 LEADERCONS4 55.0
 y0 LEADERCONS5 55.0
 y0 LEADERCONS6 10.0
 y0 LEADERCONS7 30.0
 y0 LEADERCONS8 50.0
 y1 profit 950 
 y1 FOLLOWERCONS0 25.0
 y1 LEADERCONS0 30.0
 y1 LEADERCONS1 90.0
 y1 LEADERCONS2 10.0
 y1 LEADERCONS3 20.0
 y1 LEADERCONS4 20.0
 y1 LEADERCONS5 20.0
 y1 LEADERCONS6 0.0
 y1 LEADERCONS7 5.0
 y1 LEADERCONS8 25.0
 y2 profit 450 
 y2 FOLLOWERCONS0 30.0
 y2 LEADERCONS0 50.0
 y2 LEADERCONS1 70.0
 y2 LEADERCONS2 0.0
 y2 LEADERCONS3 30.0
 y2 LEADERCONS4 50.0
 y2 LEADERCONS5 50.0
 y2 LEADERCONS6 10.0
 y2 LEADERCONS7 20.0
 y2 LEADERCONS8 25.0
 y3 profit 300 
 y3 FOLLOWERCONS0 25.0
 y3 LEADERCONS0 12.0
 y3 LEADERCONS1 27.0
 y3 LEADERCONS2 5.0
 y3 LEADERCONS3 10.0
 y3 LEADERCONS4 15.0
 y3 LEADERCONS5 20.0
 y3 LEADERCONS6 10.0
 y3 LEADERCONS7 20.0
 y3 LEADERCONS8 25.0
 y4 profit 220 
 y4 FOLLOWERCONS0 15.0
 y4 LEADERCONS0 5.0
 y4 LEADERCONS1 17.0
 y4 LEADERCONS2 0.0
 y4 LEADERCONS3 5.0
 y4 LEADERCONS4 15.0
 y4 LEADERCONS5 15.0
 y4 LEADERCONS6 5.0
 y4 LEADERCONS7 10.0
 y4 LEADERCONS8 15.0
 y5 profit 200 
 y5 FOLLOWERCONS0 10.0
 y5 LEADERCONS0 8.0
 y5 LEADERCONS1 8.0
 y5 LEADERCONS2 0.0
 y5 LEADERCONS3 3.0
 y5 LEADERCONS4 6.0
 y5 LEADERCONS5 6.0
 y5 LEADERCONS6 0.0
 y5 LEADERCONS7 10.0
 y5 LEADERCONS8 10.0
 y6 profit 520 
 y6 FOLLOWERCONS0 28.0
 y6 LEADERCONS0 18.0
 y6 LEADERCONS1 28.0
 y6 LEADERCONS2 10.0
 y6 LEADERCONS3 20.0
 y6 LEADERCONS4 20.0
 y6 LEADERCONS5 20.0
 y6 LEADERCONS6 10.0
 y6 LEADERCONS7 20.0
 y6 LEADERCONS8 28.0
RHS
 rhs LEADERCONS0 497.0
 rhs LEADERCONS1 776.0
 rhs LEADERCONS2 45.0
 rhs LEADERCONS3 180.0
 rhs LEADERCONS4 254.0
 rhs LEADERCONS5 249.0
 rhs LEADERCONS6 -13.0
 rhs LEADERCONS7 96.0
 rhs LEADERCONS8 219.0
 rhs FOLLOWERCONS0 255.0
BOUNDS
 LI  bound  x0  0.0000000
 UI  bound  x0  1.0000000
 LI  bound  x1  0.0000000
 UI  bound  x1  1.0000000
 LI  bound  x2  0.0000000
 UI  bound  x2  1.0000000
 LI  bound  x3  0.0000000
 UI  bound  x3  1.0000000
 LI  bound  x4  0.0000000
 UI  bound  x4  1.0000000
 LI  bound  x5  0.0000000
 UI  bound  x5  1.0000000
 LI  bound  x6  0.0000000
 UI  bound  x6  1.0000000
 LI  bound  x7  0.0000000
 UI  bound  x7  1.0000000
 LI  bound  x8  0.0000000
 UI  bound  x8  1.0000000
 LI  bound  x9  0.0000000
 UI  bound  x9  1.0000000
 LI  bound  x10  0.0000000
 UI  bound  x10  1.0000000
 LI  bound  x11  0.0000000
 UI  bound  x11  1.0000000
 LI  bound  x12  0.0000000
 UI  bound  x12  1.0000000
 LI  bound  x13  0.0000000
 UI  bound  x13  1.0000000
 LI  bound  x14  0.0000000
 UI  bound  x14  1.0000000
 LI  bound  x15  0.0000000
 UI  bound  x15  1.0000000
 LI  bound  x16  0.0000000
 UI  bound  x16  1.0000000
 LI  bound  x17  0.0000000
 UI  bound  x17  1.0000000
 LI  bound  x18  0.0000000
 UI  bound  x18  1.0000000
 LI  bound  x19  0.0000000
 UI  bound  x19  1.0000000
 LI  bound  x20  0.0000000
 UI  bound  x20  1.0000000
 LI  bound  y0  0.0000000
 UI  bound  y0  1.0000000
 LI  bound  y1  0.0000000
 UI  bound  y1  1.0000000
 LI  bound  y2  0.0000000
 UI  bound  y2  1.0000000
 LI  bound  y3  0.0000000
 UI  bound  y3  1.0000000
 LI  bound  y4  0.0000000
 UI  bound  y4  1.0000000
 LI  bound  y5  0.0000000
 UI  bound  y5  1.0000000
 LI  bound  y6  0.0000000
 UI  bound  y6  1.0000000
ENDATA