NAME QuadraticMultiKnapsack-weing8-1-79-26
ROWS
 N profit
 G LEADERCONS0 
 G FOLLOWERCONS0 
COLUMNS
 x0 profit 41850 
 x0 FOLLOWERCONS0 0.0
 x0 LEADERCONS0 75.0
 x1 profit 38261 
 x1 FOLLOWERCONS0 0.0
 x1 LEADERCONS0 40.0
 x2 profit 23800 
 x2 FOLLOWERCONS0 0.0
 x2 LEADERCONS0 365.0
 x3 profit 21697 
 x3 FOLLOWERCONS0 0.0
 x3 LEADERCONS0 95.0
 x4 profit 7074 
 x4 FOLLOWERCONS0 0.0
 x4 LEADERCONS0 25.0
 x5 profit 5587 
 x5 FOLLOWERCONS0 0.0
 x5 LEADERCONS0 17.0
 x6 profit 5560 
 x6 FOLLOWERCONS0 0.0
 x6 LEADERCONS0 125.0
 x7 profit 5500 
 x7 FOLLOWERCONS0 0.0
 x7 LEADERCONS0 20.0
 x8 profit 3450 
 x8 FOLLOWERCONS0 0.0
 x8 LEADERCONS0 22.0
 x9 profit 2391 
 x9 FOLLOWERCONS0 0.0
 x9 LEADERCONS0 84.0
 x10 profit 761 
 x10 FOLLOWERCONS0 0.0
 x10 LEADERCONS0 75.0
 x11 profit 460 
 x11 FOLLOWERCONS0 0.0
 x11 LEADERCONS0 50.0
 x12 profit 367 
 x12 FOLLOWERCONS0 0.0
 x12 LEADERCONS0 15.0
 x13 profit 24785 
 x13 FOLLOWERCONS0 5.0
 x13 LEADERCONS0 0.0
 x14 profit 47910 
 x14 FOLLOWERCONS0 10.0
 x14 LEADERCONS0 0.0
 x15 profit 30250 
 x15 FOLLOWERCONS0 10.0
 x15 LEADERCONS0 12.0
 x16 profit 107200 
 x16 FOLLOWERCONS0 50.0
 x16 LEADERCONS0 0.0
 x17 profit 4235 
 x17 FOLLOWERCONS0 2.0
 x17 LEADERCONS0 10.0
 x18 profit 9835 
 x18 FOLLOWERCONS0 5.0
 x18 LEADERCONS0 0.0
 x19 profit 9262 
 x19 FOLLOWERCONS0 5.0
 x19 LEADERCONS0 50.0
 x20 profit 15000 
 x20 FOLLOWERCONS0 10.0
 x20 LEADERCONS0 0.0
 x21 profit 6399 
 x21 FOLLOWERCONS0 5.0
 x21 LEADERCONS0 0.0
 x22 profit 6155 
 x22 FOLLOWERCONS0 6.0
 x22 LEADERCONS0 10.0
 x23 profit 10874 
 x23 FOLLOWERCONS0 11.0
 x23 LEADERCONS0 0.0
 x24 profit 37100 
 x24 FOLLOWERCONS0 41.0
 x24 LEADERCONS0 0.0
 x25 profit 27040 
 x25 FOLLOWERCONS0 30.0
 x25 LEADERCONS0 50.0
 x26 profit 4117 
 x26 FOLLOWERCONS0 5.0
 x26 LEADERCONS0 60.0
 x27 profit 32240 
 x27 FOLLOWERCONS0 40.0
 x27 LEADERCONS0 150.0
 x28 profit 1600 
 x28 FOLLOWERCONS0 2.0
 x28 LEADERCONS0 0.0
 x29 profit 4500 
 x29 FOLLOWERCONS0 6.0
 x29 LEADERCONS0 0.0
 x30 profit 70610 
 x30 FOLLOWERCONS0 100.0
 x30 LEADERCONS0 75.0
 x31 profit 6570 
 x31 FOLLOWERCONS0 10.0
 x31 LEADERCONS0 0.0
 x32 profit 15290 
 x32 FOLLOWERCONS0 25.0
 x32 LEADERCONS0 102.0
 x33 profit 23840 
 x33 FOLLOWERCONS0 39.0
 x33 LEADERCONS0 0.0
 x34 profit 16500 
 x34 FOLLOWERCONS0 30.0
 x34 LEADERCONS0 0.0
 x35 profit 7010 
 x35 FOLLOWERCONS0 13.0
 x35 LEADERCONS0 40.0
 x36 profit 16020 
 x36 FOLLOWERCONS0 30.0
 x36 LEADERCONS0 60.0
 x37 profit 8000 
 x37 FOLLOWERCONS0 15.0
 x37 LEADERCONS0 0.0
 x38 profit 31026 
 x38 FOLLOWERCONS0 60.0
 x38 LEADERCONS0 165.0
 x39 profit 2568 
 x39 FOLLOWERCONS0 5.0
 x39 LEADERCONS0 0.0
 x40 profit 2365 
 x40 FOLLOWERCONS0 5.0
 x40 LEADERCONS0 0.0
 x41 profit 4350 
 x41 FOLLOWERCONS0 10.0
 x41 LEADERCONS0 0.0
 x42 profit 1972 
 x42 FOLLOWERCONS0 5.0
 x42 LEADERCONS0 45.0
 x43 profit 4975 
 x43 FOLLOWERCONS0 15.0
 x43 LEADERCONS0 0.0
 x44 profit 29400 
 x44 FOLLOWERCONS0 91.0
 x44 LEADERCONS0 0.0
 x45 profit 7471 
 x45 FOLLOWERCONS0 24.0
 x45 LEADERCONS0 0.0
 x46 profit 2700 
 x46 FOLLOWERCONS0 10.0
 x46 LEADERCONS0 25.0
 x47 profit 3840 
 x47 FOLLOWERCONS0 15.0
 x47 LEADERCONS0 0.0
 x48 profit 22400 
 x48 FOLLOWERCONS0 90.0
 x48 LEADERCONS0 150.0
 x49 profit 3575 
 x49 FOLLOWERCONS0 15.0
 x49 LEADERCONS0 0.0
 x50 profit 13500 
 x50 FOLLOWERCONS0 60.0
 x50 LEADERCONS0 0.0
 x51 profit 1125 
 x51 FOLLOWERCONS0 5.0
 x51 LEADERCONS0 0.0
 x52 profit 11950 
 x52 FOLLOWERCONS0 55.0
 x52 LEADERCONS0 158.0
 x53 profit 12753 
 x53 FOLLOWERCONS0 60.0
 x53 LEADERCONS0 0.0
 x54 profit 10568 
 x54 FOLLOWERCONS0 50.0
 x54 LEADERCONS0 85.0
 x55 profit 15600 
 x55 FOLLOWERCONS0 75.0
 x55 LEADERCONS0 95.0
 x56 profit 20652 
 x56 FOLLOWERCONS0 100.0
 x56 LEADERCONS0 0.0
 x57 profit 13150 
 x57 FOLLOWERCONS0 65.0
 x57 LEADERCONS0 89.0
 x58 profit 2900 
 x58 FOLLOWERCONS0 15.0
 x58 LEADERCONS0 20.0
 x59 profit 1790 
 x59 FOLLOWERCONS0 10.0
 x59 LEADERCONS0 0.0
 x60 profit 4970 
 x60 FOLLOWERCONS0 30.0
 x60 LEADERCONS0 0.0
 x61 profit 5770 
 x61 FOLLOWERCONS0 35.0
 x61 LEADERCONS0 0.0
 x62 profit 8180 
 x62 FOLLOWERCONS0 50.0
 x62 LEADERCONS0 0.0
 x63 profit 2450 
 x63 FOLLOWERCONS0 15.0
 x63 LEADERCONS0 0.0
 x64 profit 7140 
 x64 FOLLOWERCONS0 45.0
 x64 LEADERCONS0 0.0
 x65 profit 12470 
 x65 FOLLOWERCONS0 80.0
 x65 LEADERCONS0 80.0
 x66 profit 6010 
 x66 FOLLOWERCONS0 40.0
 x66 LEADERCONS0 0.0
 x67 profit 16000 
 x67 FOLLOWERCONS0 110.0
 x67 LEADERCONS0 110.0
 x68 profit 11100 
 x68 FOLLOWERCONS0 80.0
 x68 LEADERCONS0 0.0
 x69 profit 11093 
 x69 FOLLOWERCONS0 80.0
 x69 LEADERCONS0 15.0
 x70 profit 4685 
 x70 FOLLOWERCONS0 36.0
 x70 LEADERCONS0 0.0
 x71 profit 2590 
 x71 FOLLOWERCONS0 20.0
 x71 LEADERCONS0 60.0
 x72 profit 11500 
 x72 FOLLOWERCONS0 90.0
 x72 LEADERCONS0 5.0
 x73 profit 5820 
 x73 FOLLOWERCONS0 50.0
 x73 LEADERCONS0 135.0
 x74 profit 2842 
 x74 FOLLOWERCONS0 25.0
 x74 LEADERCONS0 0.0
 x75 profit 5000 
 x75 FOLLOWERCONS0 50.0
 x75 LEADERCONS0 0.0
 x76 profit 3300 
 x76 FOLLOWERCONS0 35.0
 x76 LEADERCONS0 25.0
 x77 profit 2800 
 x77 FOLLOWERCONS0 30.0
 x77 LEADERCONS0 0.0
 x78 profit 5420 
 x78 FOLLOWERCONS0 60.0
 x78 LEADERCONS0 300.0
 y0 profit 900 
 y0 FOLLOWERCONS0 10.0
 y0 LEADERCONS0 35.0
 y1 profit 13300 
 y1 FOLLOWERCONS0 150.0
 y1 LEADERCONS0 100.0
 y2 profit 8450 
 y2 FOLLOWERCONS0 110.0
 y2 LEADERCONS0 0.0
 y3 profit 5300 
 y3 FOLLOWERCONS0 70.0
 y3 LEADERCONS0 0.0
 y4 profit 750 
 y4 FOLLOWERCONS0 10.0
 y4 LEADERCONS0 25.0
 y5 profit 1435 
 y5 FOLLOWERCONS0 20.0
 y5 LEADERCONS0 0.0
 y6 profit 2100 
 y6 FOLLOWERCONS0 30.0
 y6 LEADERCONS0 0.0
 y7 profit 7215 
 y7 FOLLOWERCONS0 104.0
 y7 LEADERCONS0 225.0
 y8 profit 2605 
 y8 FOLLOWERCONS0 40.0
 y8 LEADERCONS0 25.0
 y9 profit 2422 
 y9 FOLLOWERCONS0 40.0
 y9 LEADERCONS0 0.0
 y10 profit 5500 
 y10 FOLLOWERCONS0 94.0
 y10 LEADERCONS0 0.0
 y11 profit 8550 
 y11 FOLLOWERCONS0 150.0
 y11 LEADERCONS0 0.0
 y12 profit 2700 
 y12 FOLLOWERCONS0 50.0
 y12 LEADERCONS0 0.0
 y13 profit 540 
 y13 FOLLOWERCONS0 10.0
 y13 LEADERCONS0 0.0
 y14 profit 2550 
 y14 FOLLOWERCONS0 50.0
 y14 LEADERCONS0 0.0
 y15 profit 2450 
 y15 FOLLOWERCONS0 50.0
 y15 LEADERCONS0 0.0
 y16 profit 725 
 y16 FOLLOWERCONS0 16.0
 y16 LEADERCONS0 5.0
 y17 profit 445 
 y17 FOLLOWERCONS0 10.0
 y17 LEADERCONS0 0.0
 y18 profit 700 
 y18 FOLLOWERCONS0 20.0
 y18 LEADERCONS0 60.0
 y19 profit 1720 
 y19 FOLLOWERCONS0 50.0
 y19 LEADERCONS0 0.0
 y20 profit 2675 
 y20 FOLLOWERCONS0 90.0
 y20 LEADERCONS0 100.0
 y21 profit 220 
 y21 FOLLOWERCONS0 10.0
 y21 LEADERCONS0 0.0
 y22 profit 300 
 y22 FOLLOWERCONS0 15.0
 y22 LEADERCONS0 0.0
 y23 profit 405 
 y23 FOLLOWERCONS0 39.0
 y23 LEADERCONS0 0.0
 y24 profit 150 
 y24 FOLLOWERCONS0 20.0
 y24 LEADERCONS0 0.0
 y25 profit 70 
 y25 FOLLOWERCONS0 20.0
 y25 LEADERCONS0 0.0
RHS
 rhs LEADERCONS0 3264.0
 rhs FOLLOWERCONS0 3084.0
BOUNDS
 LI  bound  x0  0.0000000
 UI  bound  x0  1.0000000
 LI  bound  x1  0.0000000
 UI  bound  x1  1.0000000
 LI  bound  x2  0.0000000
 UI  bound  x2  1.0000000
 LI  bound  x3  0.0000000
 UI  bound  x3  1.0000000
 LI  bound  x4  0.0000000
 UI  bound  x4  1.0000000
 LI  bound  x5  0.0000000
 UI  bound  x5  1.0000000
 LI  bound  x6  0.0000000
 UI  bound  x6  1.0000000
 LI  bound  x7  0.0000000
 UI  bound  x7  1.0000000
 LI  bound  x8  0.0000000
 UI  bound  x8  1.0000000
 LI  bound  x9  0.0000000
 UI  bound  x9  1.0000000
 LI  bound  x10  0.0000000
 UI  bound  x10  1.0000000
 LI  bound  x11  0.0000000
 UI  bound  x11  1.0000000
 LI  bound  x12  0.0000000
 UI  bound  x12  1.0000000
 LI  bound  x13  0.0000000
 UI  bound  x13  1.0000000
 LI  bound  x14  0.0000000
 UI  bound  x14  1.0000000
 LI  bound  x15  0.0000000
 UI  bound  x15  1.0000000
 LI  bound  x16  0.0000000
 UI  bound  x16  1.0000000
 LI  bound  x17  0.0000000
 UI  bound  x17  1.0000000
 LI  bound  x18  0.0000000
 UI  bound  x18  1.0000000
 LI  bound  x19  0.0000000
 UI  bound  x19  1.0000000
 LI  bound  x20  0.0000000
 UI  bound  x20  1.0000000
 LI  bound  x21  0.0000000
 UI  bound  x21  1.0000000
 LI  bound  x22  0.0000000
 UI  bound  x22  1.0000000
 LI  bound  x23  0.0000000
 UI  bound  x23  1.0000000
 LI  bound  x24  0.0000000
 UI  bound  x24  1.0000000
 LI  bound  x25  0.0000000
 UI  bound  x25  1.0000000
 LI  bound  x26  0.0000000
 UI  bound  x26  1.0000000
 LI  bound  x27  0.0000000
 UI  bound  x27  1.0000000
 LI  bound  x28  0.0000000
 UI  bound  x28  1.0000000
 LI  bound  x29  0.0000000
 UI  bound  x29  1.0000000
 LI  bound  x30  0.0000000
 UI  bound  x30  1.0000000
 LI  bound  x31  0.0000000
 UI  bound  x31  1.0000000
 LI  bound  x32  0.0000000
 UI  bound  x32  1.0000000
 LI  bound  x33  0.0000000
 UI  bound  x33  1.0000000
 LI  bound  x34  0.0000000
 UI  bound  x34  1.0000000
 LI  bound  x35  0.0000000
 UI  bound  x35  1.0000000
 LI  bound  x36  0.0000000
 UI  bound  x36  1.0000000
 LI  bound  x37  0.0000000
 UI  bound  x37  1.0000000
 LI  bound  x38  0.0000000
 UI  bound  x38  1.0000000
 LI  bound  x39  0.0000000
 UI  bound  x39  1.0000000
 LI  bound  x40  0.0000000
 UI  bound  x40  1.0000000
 LI  bound  x41  0.0000000
 UI  bound  x41  1.0000000
 LI  bound  x42  0.0000000
 UI  bound  x42  1.0000000
 LI  bound  x43  0.0000000
 UI  bound  x43  1.0000000
 LI  bound  x44  0.0000000
 UI  bound  x44  1.0000000
 LI  bound  x45  0.0000000
 UI  bound  x45  1.0000000
 LI  bound  x46  0.0000000
 UI  bound  x46  1.0000000
 LI  bound  x47  0.0000000
 UI  bound  x47  1.0000000
 LI  bound  x48  0.0000000
 UI  bound  x48  1.0000000
 LI  bound  x49  0.0000000
 UI  bound  x49  1.0000000
 LI  bound  x50  0.0000000
 UI  bound  x50  1.0000000
 LI  bound  x51  0.0000000
 UI  bound  x51  1.0000000
 LI  bound  x52  0.0000000
 UI  bound  x52  1.0000000
 LI  bound  x53  0.0000000
 UI  bound  x53  1.0000000
 LI  bound  x54  0.0000000
 UI  bound  x54  1.0000000
 LI  bound  x55  0.0000000
 UI  bound  x55  1.0000000
 LI  bound  x56  0.0000000
 UI  bound  x56  1.0000000
 LI  bound  x57  0.0000000
 UI  bound  x57  1.0000000
 LI  bound  x58  0.0000000
 UI  bound  x58  1.0000000
 LI  bound  x59  0.0000000
 UI  bound  x59  1.0000000
 LI  bound  x60  0.0000000
 UI  bound  x60  1.0000000
 LI  bound  x61  0.0000000
 UI  bound  x61  1.0000000
 LI  bound  x62  0.0000000
 UI  bound  x62  1.0000000
 LI  bound  x63  0.0000000
 UI  bound  x63  1.0000000
 LI  bound  x64  0.0000000
 UI  bound  x64  1.0000000
 LI  bound  x65  0.0000000
 UI  bound  x65  1.0000000
 LI  bound  x66  0.0000000
 UI  bound  x66  1.0000000
 LI  bound  x67  0.0000000
 UI  bound  x67  1.0000000
 LI  bound  x68  0.0000000
 UI  bound  x68  1.0000000
 LI  bound  x69  0.0000000
 UI  bound  x69  1.0000000
 LI  bound  x70  0.0000000
 UI  bound  x70  1.0000000
 LI  bound  x71  0.0000000
 UI  bound  x71  1.0000000
 LI  bound  x72  0.0000000
 UI  bound  x72  1.0000000
 LI  bound  x73  0.0000000
 UI  bound  x73  1.0000000
 LI  bound  x74  0.0000000
 UI  bound  x74  1.0000000
 LI  bound  x75  0.0000000
 UI  bound  x75  1.0000000
 LI  bound  x76  0.0000000
 UI  bound  x76  1.0000000
 LI  bound  x77  0.0000000
 UI  bound  x77  1.0000000
 LI  bound  x78  0.0000000
 UI  bound  x78  1.0000000
 LI  bound  y0  0.0000000
 UI  bound  y0  1.0000000
 LI  bound  y1  0.0000000
 UI  bound  y1  1.0000000
 LI  bound  y2  0.0000000
 UI  bound  y2  1.0000000
 LI  bound  y3  0.0000000
 UI  bound  y3  1.0000000
 LI  bound  y4  0.0000000
 UI  bound  y4  1.0000000
 LI  bound  y5  0.0000000
 UI  bound  y5  1.0000000
 LI  bound  y6  0.0000000
 UI  bound  y6  1.0000000
 LI  bound  y7  0.0000000
 UI  bound  y7  1.0000000
 LI  bound  y8  0.0000000
 UI  bound  y8  1.0000000
 LI  bound  y9  0.0000000
 UI  bound  y9  1.0000000
 LI  bound  y10  0.0000000
 UI  bound  y10  1.0000000
 LI  bound  y11  0.0000000
 UI  bound  y11  1.0000000
 LI  bound  y12  0.0000000
 UI  bound  y12  1.0000000
 LI  bound  y13  0.0000000
 UI  bound  y13  1.0000000
 LI  bound  y14  0.0000000
 UI  bound  y14  1.0000000
 LI  bound  y15  0.0000000
 UI  bound  y15  1.0000000
 LI  bound  y16  0.0000000
 UI  bound  y16  1.0000000
 LI  bound  y17  0.0000000
 UI  bound  y17  1.0000000
 LI  bound  y18  0.0000000
 UI  bound  y18  1.0000000
 LI  bound  y19  0.0000000
 UI  bound  y19  1.0000000
 LI  bound  y20  0.0000000
 UI  bound  y20  1.0000000
 LI  bound  y21  0.0000000
 UI  bound  y21  1.0000000
 LI  bound  y22  0.0000000
 UI  bound  y22  1.0000000
 LI  bound  y23  0.0000000
 UI  bound  y23  1.0000000
 LI  bound  y24  0.0000000
 UI  bound  y24  1.0000000
 LI  bound  y25  0.0000000
 UI  bound  y25  1.0000000
ENDATA