NAME QuadraticMultiKnapsack-weing7-1-53-52
ROWS
 N profit
 G LEADERCONS0 
 G FOLLOWERCONS0 
COLUMNS
 x0 profit 41850 
 x0 FOLLOWERCONS0 0.0
 x0 LEADERCONS0 75.0
 x1 profit 38261 
 x1 FOLLOWERCONS0 0.0
 x1 LEADERCONS0 40.0
 x2 profit 23800 
 x2 FOLLOWERCONS0 0.0
 x2 LEADERCONS0 365.0
 x3 profit 21697 
 x3 FOLLOWERCONS0 0.0
 x3 LEADERCONS0 95.0
 x4 profit 7074 
 x4 FOLLOWERCONS0 0.0
 x4 LEADERCONS0 25.0
 x5 profit 5587 
 x5 FOLLOWERCONS0 0.0
 x5 LEADERCONS0 17.0
 x6 profit 5560 
 x6 FOLLOWERCONS0 0.0
 x6 LEADERCONS0 125.0
 x7 profit 5500 
 x7 FOLLOWERCONS0 0.0
 x7 LEADERCONS0 20.0
 x8 profit 3450 
 x8 FOLLOWERCONS0 0.0
 x8 LEADERCONS0 22.0
 x9 profit 2391 
 x9 FOLLOWERCONS0 0.0
 x9 LEADERCONS0 84.0
 x10 profit 761 
 x10 FOLLOWERCONS0 0.0
 x10 LEADERCONS0 75.0
 x11 profit 460 
 x11 FOLLOWERCONS0 0.0
 x11 LEADERCONS0 50.0
 x12 profit 367 
 x12 FOLLOWERCONS0 0.0
 x12 LEADERCONS0 15.0
 x13 profit 24785 
 x13 FOLLOWERCONS0 5.0
 x13 LEADERCONS0 0.0
 x14 profit 47910 
 x14 FOLLOWERCONS0 10.0
 x14 LEADERCONS0 0.0
 x15 profit 30250 
 x15 FOLLOWERCONS0 10.0
 x15 LEADERCONS0 12.0
 x16 profit 107200 
 x16 FOLLOWERCONS0 50.0
 x16 LEADERCONS0 0.0
 x17 profit 4235 
 x17 FOLLOWERCONS0 2.0
 x17 LEADERCONS0 10.0
 x18 profit 9835 
 x18 FOLLOWERCONS0 5.0
 x18 LEADERCONS0 0.0
 x19 profit 9262 
 x19 FOLLOWERCONS0 5.0
 x19 LEADERCONS0 50.0
 x20 profit 15000 
 x20 FOLLOWERCONS0 10.0
 x20 LEADERCONS0 0.0
 x21 profit 6399 
 x21 FOLLOWERCONS0 5.0
 x21 LEADERCONS0 0.0
 x22 profit 6155 
 x22 FOLLOWERCONS0 6.0
 x22 LEADERCONS0 10.0
 x23 profit 10874 
 x23 FOLLOWERCONS0 11.0
 x23 LEADERCONS0 0.0
 x24 profit 37100 
 x24 FOLLOWERCONS0 41.0
 x24 LEADERCONS0 0.0
 x25 profit 27040 
 x25 FOLLOWERCONS0 30.0
 x25 LEADERCONS0 50.0
 x26 profit 4117 
 x26 FOLLOWERCONS0 5.0
 x26 LEADERCONS0 60.0
 x27 profit 32240 
 x27 FOLLOWERCONS0 40.0
 x27 LEADERCONS0 150.0
 x28 profit 1600 
 x28 FOLLOWERCONS0 2.0
 x28 LEADERCONS0 0.0
 x29 profit 4500 
 x29 FOLLOWERCONS0 6.0
 x29 LEADERCONS0 0.0
 x30 profit 70610 
 x30 FOLLOWERCONS0 100.0
 x30 LEADERCONS0 75.0
 x31 profit 6570 
 x31 FOLLOWERCONS0 10.0
 x31 LEADERCONS0 0.0
 x32 profit 15290 
 x32 FOLLOWERCONS0 25.0
 x32 LEADERCONS0 102.0
 x33 profit 23840 
 x33 FOLLOWERCONS0 39.0
 x33 LEADERCONS0 0.0
 x34 profit 16500 
 x34 FOLLOWERCONS0 30.0
 x34 LEADERCONS0 0.0
 x35 profit 7010 
 x35 FOLLOWERCONS0 13.0
 x35 LEADERCONS0 40.0
 x36 profit 16020 
 x36 FOLLOWERCONS0 30.0
 x36 LEADERCONS0 60.0
 x37 profit 8000 
 x37 FOLLOWERCONS0 15.0
 x37 LEADERCONS0 0.0
 x38 profit 31026 
 x38 FOLLOWERCONS0 60.0
 x38 LEADERCONS0 165.0
 x39 profit 2568 
 x39 FOLLOWERCONS0 5.0
 x39 LEADERCONS0 0.0
 x40 profit 2365 
 x40 FOLLOWERCONS0 5.0
 x40 LEADERCONS0 0.0
 x41 profit 4350 
 x41 FOLLOWERCONS0 10.0
 x41 LEADERCONS0 0.0
 x42 profit 1972 
 x42 FOLLOWERCONS0 5.0
 x42 LEADERCONS0 45.0
 x43 profit 4975 
 x43 FOLLOWERCONS0 15.0
 x43 LEADERCONS0 0.0
 x44 profit 29400 
 x44 FOLLOWERCONS0 91.0
 x44 LEADERCONS0 0.0
 x45 profit 7471 
 x45 FOLLOWERCONS0 24.0
 x45 LEADERCONS0 0.0
 x46 profit 2700 
 x46 FOLLOWERCONS0 10.0
 x46 LEADERCONS0 25.0
 x47 profit 3840 
 x47 FOLLOWERCONS0 15.0
 x47 LEADERCONS0 0.0
 x48 profit 22400 
 x48 FOLLOWERCONS0 90.0
 x48 LEADERCONS0 150.0
 x49 profit 3575 
 x49 FOLLOWERCONS0 15.0
 x49 LEADERCONS0 0.0
 x50 profit 13500 
 x50 FOLLOWERCONS0 60.0
 x50 LEADERCONS0 0.0
 x51 profit 1125 
 x51 FOLLOWERCONS0 5.0
 x51 LEADERCONS0 0.0
 x52 profit 11950 
 x52 FOLLOWERCONS0 55.0
 x52 LEADERCONS0 158.0
 y0 profit 12753 
 y0 FOLLOWERCONS0 60.0
 y0 LEADERCONS0 0.0
 y1 profit 10568 
 y1 FOLLOWERCONS0 50.0
 y1 LEADERCONS0 85.0
 y2 profit 15600 
 y2 FOLLOWERCONS0 75.0
 y2 LEADERCONS0 95.0
 y3 profit 20652 
 y3 FOLLOWERCONS0 100.0
 y3 LEADERCONS0 0.0
 y4 profit 13150 
 y4 FOLLOWERCONS0 65.0
 y4 LEADERCONS0 89.0
 y5 profit 2900 
 y5 FOLLOWERCONS0 15.0
 y5 LEADERCONS0 20.0
 y6 profit 1790 
 y6 FOLLOWERCONS0 10.0
 y6 LEADERCONS0 0.0
 y7 profit 4970 
 y7 FOLLOWERCONS0 30.0
 y7 LEADERCONS0 0.0
 y8 profit 5770 
 y8 FOLLOWERCONS0 35.0
 y8 LEADERCONS0 0.0
 y9 profit 8180 
 y9 FOLLOWERCONS0 50.0
 y9 LEADERCONS0 0.0
 y10 profit 2450 
 y10 FOLLOWERCONS0 15.0
 y10 LEADERCONS0 0.0
 y11 profit 7140 
 y11 FOLLOWERCONS0 45.0
 y11 LEADERCONS0 0.0
 y12 profit 12470 
 y12 FOLLOWERCONS0 80.0
 y12 LEADERCONS0 80.0
 y13 profit 6010 
 y13 FOLLOWERCONS0 40.0
 y13 LEADERCONS0 0.0
 y14 profit 16000 
 y14 FOLLOWERCONS0 110.0
 y14 LEADERCONS0 110.0
 y15 profit 11100 
 y15 FOLLOWERCONS0 80.0
 y15 LEADERCONS0 0.0
 y16 profit 11093 
 y16 FOLLOWERCONS0 80.0
 y16 LEADERCONS0 15.0
 y17 profit 4685 
 y17 FOLLOWERCONS0 36.0
 y17 LEADERCONS0 0.0
 y18 profit 2590 
 y18 FOLLOWERCONS0 20.0
 y18 LEADERCONS0 60.0
 y19 profit 11500 
 y19 FOLLOWERCONS0 90.0
 y19 LEADERCONS0 5.0
 y20 profit 5820 
 y20 FOLLOWERCONS0 50.0
 y20 LEADERCONS0 135.0
 y21 profit 2842 
 y21 FOLLOWERCONS0 25.0
 y21 LEADERCONS0 0.0
 y22 profit 5000 
 y22 FOLLOWERCONS0 50.0
 y22 LEADERCONS0 0.0
 y23 profit 3300 
 y23 FOLLOWERCONS0 35.0
 y23 LEADERCONS0 25.0
 y24 profit 2800 
 y24 FOLLOWERCONS0 30.0
 y24 LEADERCONS0 0.0
 y25 profit 5420 
 y25 FOLLOWERCONS0 60.0
 y25 LEADERCONS0 300.0
 y26 profit 900 
 y26 FOLLOWERCONS0 10.0
 y26 LEADERCONS0 35.0
 y27 profit 13300 
 y27 FOLLOWERCONS0 150.0
 y27 LEADERCONS0 100.0
 y28 profit 8450 
 y28 FOLLOWERCONS0 110.0
 y28 LEADERCONS0 0.0
 y29 profit 5300 
 y29 FOLLOWERCONS0 70.0
 y29 LEADERCONS0 0.0
 y30 profit 750 
 y30 FOLLOWERCONS0 10.0
 y30 LEADERCONS0 25.0
 y31 profit 1435 
 y31 FOLLOWERCONS0 20.0
 y31 LEADERCONS0 0.0
 y32 profit 2100 
 y32 FOLLOWERCONS0 30.0
 y32 LEADERCONS0 0.0
 y33 profit 7215 
 y33 FOLLOWERCONS0 104.0
 y33 LEADERCONS0 225.0
 y34 profit 2605 
 y34 FOLLOWERCONS0 40.0
 y34 LEADERCONS0 25.0
 y35 profit 2422 
 y35 FOLLOWERCONS0 40.0
 y35 LEADERCONS0 0.0
 y36 profit 5500 
 y36 FOLLOWERCONS0 94.0
 y36 LEADERCONS0 0.0
 y37 profit 8550 
 y37 FOLLOWERCONS0 150.0
 y37 LEADERCONS0 0.0
 y38 profit 2700 
 y38 FOLLOWERCONS0 50.0
 y38 LEADERCONS0 0.0
 y39 profit 540 
 y39 FOLLOWERCONS0 10.0
 y39 LEADERCONS0 0.0
 y40 profit 2550 
 y40 FOLLOWERCONS0 50.0
 y40 LEADERCONS0 0.0
 y41 profit 2450 
 y41 FOLLOWERCONS0 50.0
 y41 LEADERCONS0 0.0
 y42 profit 725 
 y42 FOLLOWERCONS0 16.0
 y42 LEADERCONS0 5.0
 y43 profit 445 
 y43 FOLLOWERCONS0 10.0
 y43 LEADERCONS0 0.0
 y44 profit 700 
 y44 FOLLOWERCONS0 20.0
 y44 LEADERCONS0 60.0
 y45 profit 1720 
 y45 FOLLOWERCONS0 50.0
 y45 LEADERCONS0 0.0
 y46 profit 2675 
 y46 FOLLOWERCONS0 90.0
 y46 LEADERCONS0 100.0
 y47 profit 220 
 y47 FOLLOWERCONS0 10.0
 y47 LEADERCONS0 0.0
 y48 profit 300 
 y48 FOLLOWERCONS0 15.0
 y48 LEADERCONS0 0.0
 y49 profit 405 
 y49 FOLLOWERCONS0 39.0
 y49 LEADERCONS0 0.0
 y50 profit 150 
 y50 FOLLOWERCONS0 20.0
 y50 LEADERCONS0 0.0
 y51 profit 70 
 y51 FOLLOWERCONS0 20.0
 y51 LEADERCONS0 0.0
RHS
 rhs LEADERCONS0 764.0
 rhs FOLLOWERCONS0 584.0
BOUNDS
 LI  bound  x0  0.0000000
 UI  bound  x0  1.0000000
 LI  bound  x1  0.0000000
 UI  bound  x1  1.0000000
 LI  bound  x2  0.0000000
 UI  bound  x2  1.0000000
 LI  bound  x3  0.0000000
 UI  bound  x3  1.0000000
 LI  bound  x4  0.0000000
 UI  bound  x4  1.0000000
 LI  bound  x5  0.0000000
 UI  bound  x5  1.0000000
 LI  bound  x6  0.0000000
 UI  bound  x6  1.0000000
 LI  bound  x7  0.0000000
 UI  bound  x7  1.0000000
 LI  bound  x8  0.0000000
 UI  bound  x8  1.0000000
 LI  bound  x9  0.0000000
 UI  bound  x9  1.0000000
 LI  bound  x10  0.0000000
 UI  bound  x10  1.0000000
 LI  bound  x11  0.0000000
 UI  bound  x11  1.0000000
 LI  bound  x12  0.0000000
 UI  bound  x12  1.0000000
 LI  bound  x13  0.0000000
 UI  bound  x13  1.0000000
 LI  bound  x14  0.0000000
 UI  bound  x14  1.0000000
 LI  bound  x15  0.0000000
 UI  bound  x15  1.0000000
 LI  bound  x16  0.0000000
 UI  bound  x16  1.0000000
 LI  bound  x17  0.0000000
 UI  bound  x17  1.0000000
 LI  bound  x18  0.0000000
 UI  bound  x18  1.0000000
 LI  bound  x19  0.0000000
 UI  bound  x19  1.0000000
 LI  bound  x20  0.0000000
 UI  bound  x20  1.0000000
 LI  bound  x21  0.0000000
 UI  bound  x21  1.0000000
 LI  bound  x22  0.0000000
 UI  bound  x22  1.0000000
 LI  bound  x23  0.0000000
 UI  bound  x23  1.0000000
 LI  bound  x24  0.0000000
 UI  bound  x24  1.0000000
 LI  bound  x25  0.0000000
 UI  bound  x25  1.0000000
 LI  bound  x26  0.0000000
 UI  bound  x26  1.0000000
 LI  bound  x27  0.0000000
 UI  bound  x27  1.0000000
 LI  bound  x28  0.0000000
 UI  bound  x28  1.0000000
 LI  bound  x29  0.0000000
 UI  bound  x29  1.0000000
 LI  bound  x30  0.0000000
 UI  bound  x30  1.0000000
 LI  bound  x31  0.0000000
 UI  bound  x31  1.0000000
 LI  bound  x32  0.0000000
 UI  bound  x32  1.0000000
 LI  bound  x33  0.0000000
 UI  bound  x33  1.0000000
 LI  bound  x34  0.0000000
 UI  bound  x34  1.0000000
 LI  bound  x35  0.0000000
 UI  bound  x35  1.0000000
 LI  bound  x36  0.0000000
 UI  bound  x36  1.0000000
 LI  bound  x37  0.0000000
 UI  bound  x37  1.0000000
 LI  bound  x38  0.0000000
 UI  bound  x38  1.0000000
 LI  bound  x39  0.0000000
 UI  bound  x39  1.0000000
 LI  bound  x40  0.0000000
 UI  bound  x40  1.0000000
 LI  bound  x41  0.0000000
 UI  bound  x41  1.0000000
 LI  bound  x42  0.0000000
 UI  bound  x42  1.0000000
 LI  bound  x43  0.0000000
 UI  bound  x43  1.0000000
 LI  bound  x44  0.0000000
 UI  bound  x44  1.0000000
 LI  bound  x45  0.0000000
 UI  bound  x45  1.0000000
 LI  bound  x46  0.0000000
 UI  bound  x46  1.0000000
 LI  bound  x47  0.0000000
 UI  bound  x47  1.0000000
 LI  bound  x48  0.0000000
 UI  bound  x48  1.0000000
 LI  bound  x49  0.0000000
 UI  bound  x49  1.0000000
 LI  bound  x50  0.0000000
 UI  bound  x50  1.0000000
 LI  bound  x51  0.0000000
 UI  bound  x51  1.0000000
 LI  bound  x52  0.0000000
 UI  bound  x52  1.0000000
 LI  bound  y0  0.0000000
 UI  bound  y0  1.0000000
 LI  bound  y1  0.0000000
 UI  bound  y1  1.0000000
 LI  bound  y2  0.0000000
 UI  bound  y2  1.0000000
 LI  bound  y3  0.0000000
 UI  bound  y3  1.0000000
 LI  bound  y4  0.0000000
 UI  bound  y4  1.0000000
 LI  bound  y5  0.0000000
 UI  bound  y5  1.0000000
 LI  bound  y6  0.0000000
 UI  bound  y6  1.0000000
 LI  bound  y7  0.0000000
 UI  bound  y7  1.0000000
 LI  bound  y8  0.0000000
 UI  bound  y8  1.0000000
 LI  bound  y9  0.0000000
 UI  bound  y9  1.0000000
 LI  bound  y10  0.0000000
 UI  bound  y10  1.0000000
 LI  bound  y11  0.0000000
 UI  bound  y11  1.0000000
 LI  bound  y12  0.0000000
 UI  bound  y12  1.0000000
 LI  bound  y13  0.0000000
 UI  bound  y13  1.0000000
 LI  bound  y14  0.0000000
 UI  bound  y14  1.0000000
 LI  bound  y15  0.0000000
 UI  bound  y15  1.0000000
 LI  bound  y16  0.0000000
 UI  bound  y16  1.0000000
 LI  bound  y17  0.0000000
 UI  bound  y17  1.0000000
 LI  bound  y18  0.0000000
 UI  bound  y18  1.0000000
 LI  bound  y19  0.0000000
 UI  bound  y19  1.0000000
 LI  bound  y20  0.0000000
 UI  bound  y20  1.0000000
 LI  bound  y21  0.0000000
 UI  bound  y21  1.0000000
 LI  bound  y22  0.0000000
 UI  bound  y22  1.0000000
 LI  bound  y23  0.0000000
 UI  bound  y23  1.0000000
 LI  bound  y24  0.0000000
 UI  bound  y24  1.0000000
 LI  bound  y25  0.0000000
 UI  bound  y25  1.0000000
 LI  bound  y26  0.0000000
 UI  bound  y26  1.0000000
 LI  bound  y27  0.0000000
 UI  bound  y27  1.0000000
 LI  bound  y28  0.0000000
 UI  bound  y28  1.0000000
 LI  bound  y29  0.0000000
 UI  bound  y29  1.0000000
 LI  bound  y30  0.0000000
 UI  bound  y30  1.0000000
 LI  bound  y31  0.0000000
 UI  bound  y31  1.0000000
 LI  bound  y32  0.0000000
 UI  bound  y32  1.0000000
 LI  bound  y33  0.0000000
 UI  bound  y33  1.0000000
 LI  bound  y34  0.0000000
 UI  bound  y34  1.0000000
 LI  bound  y35  0.0000000
 UI  bound  y35  1.0000000
 LI  bound  y36  0.0000000
 UI  bound  y36  1.0000000
 LI  bound  y37  0.0000000
 UI  bound  y37  1.0000000
 LI  bound  y38  0.0000000
 UI  bound  y38  1.0000000
 LI  bound  y39  0.0000000
 UI  bound  y39  1.0000000
 LI  bound  y40  0.0000000
 UI  bound  y40  1.0000000
 LI  bound  y41  0.0000000
 UI  bound  y41  1.0000000
 LI  bound  y42  0.0000000
 UI  bound  y42  1.0000000
 LI  bound  y43  0.0000000
 UI  bound  y43  1.0000000
 LI  bound  y44  0.0000000
 UI  bound  y44  1.0000000
 LI  bound  y45  0.0000000
 UI  bound  y45  1.0000000
 LI  bound  y46  0.0000000
 UI  bound  y46  1.0000000
 LI  bound  y47  0.0000000
 UI  bound  y47  1.0000000
 LI  bound  y48  0.0000000
 UI  bound  y48  1.0000000
 LI  bound  y49  0.0000000
 UI  bound  y49  1.0000000
 LI  bound  y50  0.0000000
 UI  bound  y50  1.0000000
 LI  bound  y51  0.0000000
 UI  bound  y51  1.0000000
ENDATA