NAME QuadraticMultiKnapsack-weish06-1-30-10
ROWS
 N profit
 G LEADERCONS0 
 G LEADERCONS1 
 G LEADERCONS2 
 G LEADERCONS3 
 G FOLLOWERCONS0 
COLUMNS
 x0 profit 360 
 x0 FOLLOWERCONS0 94.0
 x0 LEADERCONS0 7.0
 x0 LEADERCONS1 8.0
 x0 LEADERCONS2 3.0
 x0 LEADERCONS3 21.0
 x1 profit 83 
 x1 FOLLOWERCONS0 86.0
 x1 LEADERCONS0 0.0
 x1 LEADERCONS1 66.0
 x1 LEADERCONS2 74.0
 x1 LEADERCONS3 40.0
 x2 profit 59 
 x2 FOLLOWERCONS0 80.0
 x2 LEADERCONS0 30.0
 x2 LEADERCONS1 98.0
 x2 LEADERCONS2 88.0
 x2 LEADERCONS3 0.0
 x3 profit 130 
 x3 FOLLOWERCONS0 92.0
 x3 LEADERCONS0 22.0
 x3 LEADERCONS1 50.0
 x3 LEADERCONS2 50.0
 x3 LEADERCONS3 6.0
 x4 profit 431 
 x4 FOLLOWERCONS0 31.0
 x4 LEADERCONS0 80.0
 x4 LEADERCONS1 0.0
 x4 LEADERCONS2 55.0
 x4 LEADERCONS3 82.0
 x5 profit 67 
 x5 FOLLOWERCONS0 17.0
 x5 LEADERCONS0 94.0
 x5 LEADERCONS1 30.0
 x5 LEADERCONS2 19.0
 x5 LEADERCONS3 91.0
 x6 profit 230 
 x6 FOLLOWERCONS0 65.0
 x6 LEADERCONS0 11.0
 x6 LEADERCONS1 0.0
 x6 LEADERCONS2 0.0
 x6 LEADERCONS3 43.0
 x7 profit 52 
 x7 FOLLOWERCONS0 51.0
 x7 LEADERCONS0 81.0
 x7 LEADERCONS1 88.0
 x7 LEADERCONS2 6.0
 x7 LEADERCONS3 30.0
 x8 profit 93 
 x8 FOLLOWERCONS0 46.0
 x8 LEADERCONS0 70.0
 x8 LEADERCONS1 15.0
 x8 LEADERCONS2 30.0
 x8 LEADERCONS3 62.0
 x9 profit 125 
 x9 FOLLOWERCONS0 66.0
 x9 LEADERCONS0 64.0
 x9 LEADERCONS1 37.0
 x9 LEADERCONS2 62.0
 x9 LEADERCONS3 91.0
 x10 profit 670 
 x10 FOLLOWERCONS0 44.0
 x10 LEADERCONS0 59.0
 x10 LEADERCONS1 26.0
 x10 LEADERCONS2 17.0
 x10 LEADERCONS3 10.0
 x11 profit 892 
 x11 FOLLOWERCONS0 3.0
 x11 LEADERCONS0 18.0
 x11 LEADERCONS1 72.0
 x11 LEADERCONS2 81.0
 x11 LEADERCONS3 41.0
 x12 profit 600 
 x12 FOLLOWERCONS0 26.0
 x12 LEADERCONS0 0.0
 x12 LEADERCONS1 61.0
 x12 LEADERCONS2 25.0
 x12 LEADERCONS3 12.0
 x13 profit 38 
 x13 FOLLOWERCONS0 0.0
 x13 LEADERCONS0 36.0
 x13 LEADERCONS1 57.0
 x13 LEADERCONS2 46.0
 x13 LEADERCONS3 4.0
 x14 profit 48 
 x14 FOLLOWERCONS0 39.0
 x14 LEADERCONS0 3.0
 x14 LEADERCONS1 17.0
 x14 LEADERCONS2 67.0
 x14 LEADERCONS3 80.0
 x15 profit 147 
 x15 FOLLOWERCONS0 20.0
 x15 LEADERCONS0 8.0
 x15 LEADERCONS1 27.0
 x15 LEADERCONS2 28.0
 x15 LEADERCONS3 77.0
 x16 profit 78 
 x16 FOLLOWERCONS0 11.0
 x16 LEADERCONS0 15.0
 x16 LEADERCONS1 83.0
 x16 LEADERCONS2 36.0
 x16 LEADERCONS3 98.0
 x17 profit 256 
 x17 FOLLOWERCONS0 6.0
 x17 LEADERCONS0 42.0
 x17 LEADERCONS1 3.0
 x17 LEADERCONS2 8.0
 x17 LEADERCONS3 50.0
 x18 profit 63 
 x18 FOLLOWERCONS0 55.0
 x18 LEADERCONS0 9.0
 x18 LEADERCONS1 9.0
 x18 LEADERCONS2 1.0
 x18 LEADERCONS3 78.0
 x19 profit 17 
 x19 FOLLOWERCONS0 70.0
 x19 LEADERCONS0 0.0
 x19 LEADERCONS1 66.0
 x19 LEADERCONS2 52.0
 x19 LEADERCONS3 35.0
 x20 profit 120 
 x20 FOLLOWERCONS0 11.0
 x20 LEADERCONS0 42.0
 x20 LEADERCONS1 97.0
 x20 LEADERCONS2 19.0
 x20 LEADERCONS3 7.0
 x21 profit 164 
 x21 FOLLOWERCONS0 75.0
 x21 LEADERCONS0 47.0
 x21 LEADERCONS1 42.0
 x21 LEADERCONS2 37.0
 x21 LEADERCONS3 1.0
 x22 profit 432 
 x22 FOLLOWERCONS0 82.0
 x22 LEADERCONS0 52.0
 x22 LEADERCONS1 2.0
 x22 LEADERCONS2 27.0
 x22 LEADERCONS3 96.0
 x23 profit 35 
 x23 FOLLOWERCONS0 35.0
 x23 LEADERCONS0 32.0
 x23 LEADERCONS1 44.0
 x23 LEADERCONS2 62.0
 x23 LEADERCONS3 67.0
 x24 profit 92 
 x24 FOLLOWERCONS0 47.0
 x24 LEADERCONS0 26.0
 x24 LEADERCONS1 71.0
 x24 LEADERCONS2 39.0
 x24 LEADERCONS3 85.0
 x25 profit 110 
 x25 FOLLOWERCONS0 99.0
 x25 LEADERCONS0 48.0
 x25 LEADERCONS1 11.0
 x25 LEADERCONS2 84.0
 x25 LEADERCONS3 4.0
 x26 profit 22 
 x26 FOLLOWERCONS0 5.0
 x26 LEADERCONS0 55.0
 x26 LEADERCONS1 25.0
 x26 LEADERCONS2 16.0
 x26 LEADERCONS3 23.0
 x27 profit 42 
 x27 FOLLOWERCONS0 14.0
 x27 LEADERCONS0 6.0
 x27 LEADERCONS1 74.0
 x27 LEADERCONS2 14.0
 x27 LEADERCONS3 38.0
 x28 profit 50 
 x28 FOLLOWERCONS0 23.0
 x28 LEADERCONS0 29.0
 x28 LEADERCONS1 90.0
 x28 LEADERCONS2 21.0
 x28 LEADERCONS3 2.0
 x29 profit 323 
 x29 FOLLOWERCONS0 38.0
 x29 LEADERCONS0 84.0
 x29 LEADERCONS1 20.0
 x29 LEADERCONS2 5.0
 x29 LEADERCONS3 57.0
 y0 profit 514 
 y0 FOLLOWERCONS0 94.0
 y0 LEADERCONS0 2.0
 y0 LEADERCONS1 0.0
 y0 LEADERCONS2 60.0
 y0 LEADERCONS3 4.0
 y1 profit 28 
 y1 FOLLOWERCONS0 66.0
 y1 LEADERCONS0 4.0
 y1 LEADERCONS1 38.0
 y1 LEADERCONS2 82.0
 y1 LEADERCONS3 53.0
 y2 profit 87 
 y2 FOLLOWERCONS0 64.0
 y2 LEADERCONS0 18.0
 y2 LEADERCONS1 33.0
 y2 LEADERCONS2 72.0
 y2 LEADERCONS3 0.0
 y3 profit 73 
 y3 FOLLOWERCONS0 27.0
 y3 LEADERCONS0 56.0
 y3 LEADERCONS1 14.0
 y3 LEADERCONS2 89.0
 y3 LEADERCONS3 33.0
 y4 profit 78 
 y4 FOLLOWERCONS0 77.0
 y4 LEADERCONS0 7.0
 y4 LEADERCONS1 9.0
 y4 LEADERCONS2 16.0
 y4 LEADERCONS3 2.0
 y5 profit 15 
 y5 FOLLOWERCONS0 50.0
 y5 LEADERCONS0 29.0
 y5 LEADERCONS1 23.0
 y5 LEADERCONS2 5.0
 y5 LEADERCONS3 25.0
 y6 profit 26 
 y6 FOLLOWERCONS0 28.0
 y6 LEADERCONS0 93.0
 y6 LEADERCONS1 12.0
 y6 LEADERCONS2 29.0
 y6 LEADERCONS3 14.0
 y7 profit 78 
 y7 FOLLOWERCONS0 25.0
 y7 LEADERCONS0 44.0
 y7 LEADERCONS1 58.0
 y7 LEADERCONS2 7.0
 y7 LEADERCONS3 97.0
 y8 profit 210 
 y8 FOLLOWERCONS0 61.0
 y8 LEADERCONS0 71.0
 y8 LEADERCONS1 6.0
 y8 LEADERCONS2 80.0
 y8 LEADERCONS3 87.0
 y9 profit 36 
 y9 FOLLOWERCONS0 10.0
 y9 LEADERCONS0 3.0
 y9 LEADERCONS1 14.0
 y9 LEADERCONS2 97.0
 y9 LEADERCONS3 42.0
RHS
 rhs LEADERCONS0 917.0
 rhs LEADERCONS1 736.0
 rhs LEADERCONS2 809.0
 rhs LEADERCONS3 508.0
 rhs FOLLOWERCONS0 893.0
BOUNDS
 LI  bound  x0  0.0000000
 UI  bound  x0  1.0000000
 LI  bound  x1  0.0000000
 UI  bound  x1  1.0000000
 LI  bound  x2  0.0000000
 UI  bound  x2  1.0000000
 LI  bound  x3  0.0000000
 UI  bound  x3  1.0000000
 LI  bound  x4  0.0000000
 UI  bound  x4  1.0000000
 LI  bound  x5  0.0000000
 UI  bound  x5  1.0000000
 LI  bound  x6  0.0000000
 UI  bound  x6  1.0000000
 LI  bound  x7  0.0000000
 UI  bound  x7  1.0000000
 LI  bound  x8  0.0000000
 UI  bound  x8  1.0000000
 LI  bound  x9  0.0000000
 UI  bound  x9  1.0000000
 LI  bound  x10  0.0000000
 UI  bound  x10  1.0000000
 LI  bound  x11  0.0000000
 UI  bound  x11  1.0000000
 LI  bound  x12  0.0000000
 UI  bound  x12  1.0000000
 LI  bound  x13  0.0000000
 UI  bound  x13  1.0000000
 LI  bound  x14  0.0000000
 UI  bound  x14  1.0000000
 LI  bound  x15  0.0000000
 UI  bound  x15  1.0000000
 LI  bound  x16  0.0000000
 UI  bound  x16  1.0000000
 LI  bound  x17  0.0000000
 UI  bound  x17  1.0000000
 LI  bound  x18  0.0000000
 UI  bound  x18  1.0000000
 LI  bound  x19  0.0000000
 UI  bound  x19  1.0000000
 LI  bound  x20  0.0000000
 UI  bound  x20  1.0000000
 LI  bound  x21  0.0000000
 UI  bound  x21  1.0000000
 LI  bound  x22  0.0000000
 UI  bound  x22  1.0000000
 LI  bound  x23  0.0000000
 UI  bound  x23  1.0000000
 LI  bound  x24  0.0000000
 UI  bound  x24  1.0000000
 LI  bound  x25  0.0000000
 UI  bound  x25  1.0000000
 LI  bound  x26  0.0000000
 UI  bound  x26  1.0000000
 LI  bound  x27  0.0000000
 UI  bound  x27  1.0000000
 LI  bound  x28  0.0000000
 UI  bound  x28  1.0000000
 LI  bound  x29  0.0000000
 UI  bound  x29  1.0000000
 LI  bound  y0  0.0000000
 UI  bound  y0  1.0000000
 LI  bound  y1  0.0000000
 UI  bound  y1  1.0000000
 LI  bound  y2  0.0000000
 UI  bound  y2  1.0000000
 LI  bound  y3  0.0000000
 UI  bound  y3  1.0000000
 LI  bound  y4  0.0000000
 UI  bound  y4  1.0000000
 LI  bound  y5  0.0000000
 UI  bound  y5  1.0000000
 LI  bound  y6  0.0000000
 UI  bound  y6  1.0000000
 LI  bound  y7  0.0000000
 UI  bound  y7  1.0000000
 LI  bound  y8  0.0000000
 UI  bound  y8  1.0000000
 LI  bound  y9  0.0000000
 UI  bound  y9  1.0000000
ENDATA