NAME QuadraticMultiKnapsack-hp1-1-21-7
ROWS
 N profit
 G LEADERCONS0 
 G LEADERCONS1 
 G LEADERCONS2 
 G FOLLOWERCONS0 
COLUMNS
 x0 profit 560 
 x0 FOLLOWERCONS0 38.0
 x0 LEADERCONS0 40.0
 x0 LEADERCONS1 16.0
 x0 LEADERCONS2 38.0
 x1 profit 1125 
 x1 FOLLOWERCONS0 52.0
 x1 LEADERCONS0 91.0
 x1 LEADERCONS1 92.0
 x1 LEADERCONS2 39.0
 x2 profit 68 
 x2 FOLLOWERCONS0 7.0
 x2 LEADERCONS0 3.0
 x2 LEADERCONS1 4.0
 x2 LEADERCONS2 5.0
 x3 profit 328 
 x3 FOLLOWERCONS0 20.0
 x3 LEADERCONS0 12.0
 x3 LEADERCONS1 18.0
 x3 LEADERCONS2 40.0
 x4 profit 47 
 x4 FOLLOWERCONS0 0.0
 x4 LEADERCONS0 3.0
 x4 LEADERCONS1 6.0
 x4 LEADERCONS2 8.0
 x5 profit 122 
 x5 FOLLOWERCONS0 3.0
 x5 LEADERCONS0 18.0
 x5 LEADERCONS1 0.0
 x5 LEADERCONS2 12.0
 x6 profit 196 
 x6 FOLLOWERCONS0 4.0
 x6 LEADERCONS0 25.0
 x6 LEADERCONS1 8.0
 x6 LEADERCONS2 15.0
 x7 profit 41 
 x7 FOLLOWERCONS0 1.0
 x7 LEADERCONS0 1.0
 x7 LEADERCONS1 2.0
 x7 LEADERCONS2 0.0
 x8 profit 25 
 x8 FOLLOWERCONS0 2.0
 x8 LEADERCONS0 1.0
 x8 LEADERCONS1 1.0
 x8 LEADERCONS2 1.0
 x9 profit 115 
 x9 FOLLOWERCONS0 4.0
 x9 LEADERCONS0 8.0
 x9 LEADERCONS1 6.0
 x9 LEADERCONS2 20.0
 x10 profit 82 
 x10 FOLLOWERCONS0 6.0
 x10 LEADERCONS0 1.0
 x10 LEADERCONS1 2.0
 x10 LEADERCONS2 3.0
 x11 profit 22 
 x11 FOLLOWERCONS0 1.0
 x11 LEADERCONS0 1.0
 x11 LEADERCONS1 1.0
 x11 LEADERCONS2 0.0
 x12 profit 631 
 x12 FOLLOWERCONS0 18.0
 x12 LEADERCONS0 49.0
 x12 LEADERCONS1 70.0
 x12 LEADERCONS2 40.0
 x13 profit 132 
 x13 FOLLOWERCONS0 15.0
 x13 LEADERCONS0 8.0
 x13 LEADERCONS1 9.0
 x13 LEADERCONS2 6.0
 x14 profit 420 
 x14 FOLLOWERCONS0 38.0
 x14 LEADERCONS0 21.0
 x14 LEADERCONS1 22.0
 x14 LEADERCONS2 8.0
 x15 profit 86 
 x15 FOLLOWERCONS0 10.0
 x15 LEADERCONS0 6.0
 x15 LEADERCONS1 4.0
 x15 LEADERCONS2 0.0
 x16 profit 42 
 x16 FOLLOWERCONS0 4.0
 x16 LEADERCONS0 1.0
 x16 LEADERCONS1 1.0
 x16 LEADERCONS2 6.0
 x17 profit 103 
 x17 FOLLOWERCONS0 8.0
 x17 LEADERCONS0 5.0
 x17 LEADERCONS1 5.0
 x17 LEADERCONS2 4.0
 x18 profit 81 
 x18 FOLLOWERCONS0 0.0
 x18 LEADERCONS0 8.0
 x18 LEADERCONS1 6.0
 x18 LEADERCONS2 4.0
 x19 profit 26 
 x19 FOLLOWERCONS0 3.0
 x19 LEADERCONS0 1.0
 x19 LEADERCONS1 0.0
 x19 LEADERCONS2 1.0
 x20 profit 49 
 x20 FOLLOWERCONS0 0.0
 x20 LEADERCONS0 0.0
 x20 LEADERCONS1 4.0
 x20 LEADERCONS2 5.0
 y0 profit 316 
 y0 FOLLOWERCONS0 6.0
 y0 LEADERCONS0 42.0
 y0 LEADERCONS1 8.0
 y0 LEADERCONS2 8.0
 y1 profit 72 
 y1 FOLLOWERCONS0 1.0
 y1 LEADERCONS0 6.0
 y1 LEADERCONS1 4.0
 y1 LEADERCONS2 2.0
 y2 profit 71 
 y2 FOLLOWERCONS0 3.0
 y2 LEADERCONS0 4.0
 y2 LEADERCONS1 3.0
 y2 LEADERCONS2 8.0
 y3 profit 49 
 y3 FOLLOWERCONS0 0.0
 y3 LEADERCONS0 8.0
 y3 LEADERCONS1 0.0
 y3 LEADERCONS2 0.0
 y4 profit 108 
 y4 FOLLOWERCONS0 3.0
 y4 LEADERCONS0 0.0
 y4 LEADERCONS1 10.0
 y4 LEADERCONS2 20.0
 y5 profit 116 
 y5 FOLLOWERCONS0 5.0
 y5 LEADERCONS0 10.0
 y5 LEADERCONS1 0.0
 y5 LEADERCONS2 0.0
 y6 profit 90 
 y6 FOLLOWERCONS0 4.0
 y6 LEADERCONS0 1.0
 y6 LEADERCONS1 6.0
 y6 LEADERCONS2 0.0
RHS
 rhs LEADERCONS0 155.0
 rhs LEADERCONS1 105.0
 rhs LEADERCONS2 85.0
 rhs FOLLOWERCONS0 76.0
BOUNDS
 LI  bound  x0  0.0000000
 UI  bound  x0  1.0000000
 LI  bound  x1  0.0000000
 UI  bound  x1  1.0000000
 LI  bound  x2  0.0000000
 UI  bound  x2  1.0000000
 LI  bound  x3  0.0000000
 UI  bound  x3  1.0000000
 LI  bound  x4  0.0000000
 UI  bound  x4  1.0000000
 LI  bound  x5  0.0000000
 UI  bound  x5  1.0000000
 LI  bound  x6  0.0000000
 UI  bound  x6  1.0000000
 LI  bound  x7  0.0000000
 UI  bound  x7  1.0000000
 LI  bound  x8  0.0000000
 UI  bound  x8  1.0000000
 LI  bound  x9  0.0000000
 UI  bound  x9  1.0000000
 LI  bound  x10  0.0000000
 UI  bound  x10  1.0000000
 LI  bound  x11  0.0000000
 UI  bound  x11  1.0000000
 LI  bound  x12  0.0000000
 UI  bound  x12  1.0000000
 LI  bound  x13  0.0000000
 UI  bound  x13  1.0000000
 LI  bound  x14  0.0000000
 UI  bound  x14  1.0000000
 LI  bound  x15  0.0000000
 UI  bound  x15  1.0000000
 LI  bound  x16  0.0000000
 UI  bound  x16  1.0000000
 LI  bound  x17  0.0000000
 UI  bound  x17  1.0000000
 LI  bound  x18  0.0000000
 UI  bound  x18  1.0000000
 LI  bound  x19  0.0000000
 UI  bound  x19  1.0000000
 LI  bound  x20  0.0000000
 UI  bound  x20  1.0000000
 LI  bound  y0  0.0000000
 UI  bound  y0  1.0000000
 LI  bound  y1  0.0000000
 UI  bound  y1  1.0000000
 LI  bound  y2  0.0000000
 UI  bound  y2  1.0000000
 LI  bound  y3  0.0000000
 UI  bound  y3  1.0000000
 LI  bound  y4  0.0000000
 UI  bound  y4  1.0000000
 LI  bound  y5  0.0000000
 UI  bound  y5  1.0000000
 LI  bound  y6  0.0000000
 UI  bound  y6  1.0000000
ENDATA