NAME QuadraticMultiKnapsack-pb4-1-15-14
ROWS
 N profit
 G LEADERCONS0 
 G FOLLOWERCONS0 
COLUMNS
 x0 profit 7074 
 x0 FOLLOWERCONS0 0.0
 x0 LEADERCONS0 25.0
 x1 profit 5587 
 x1 FOLLOWERCONS0 0.0
 x1 LEADERCONS0 17.0
 x2 profit 5500 
 x2 FOLLOWERCONS0 0.0
 x2 LEADERCONS0 20.0
 x3 profit 3450 
 x3 FOLLOWERCONS0 0.0
 x3 LEADERCONS0 22.0
 x4 profit 367 
 x4 FOLLOWERCONS0 0.0
 x4 LEADERCONS0 15.0
 x5 profit 4235 
 x5 FOLLOWERCONS0 2.0
 x5 LEADERCONS0 10.0
 x6 profit 9262 
 x6 FOLLOWERCONS0 5.0
 x6 LEADERCONS0 50.0
 x7 profit 6155 
 x7 FOLLOWERCONS0 6.0
 x7 LEADERCONS0 10.0
 x8 profit 32240 
 x8 FOLLOWERCONS0 40.0
 x8 LEADERCONS0 150.0
 x9 profit 1600 
 x9 FOLLOWERCONS0 2.0
 x9 LEADERCONS0 0.0
 x10 profit 4500 
 x10 FOLLOWERCONS0 6.0
 x10 LEADERCONS0 0.0
 x11 profit 6570 
 x11 FOLLOWERCONS0 10.0
 x11 LEADERCONS0 0.0
 x12 profit 7010 
 x12 FOLLOWERCONS0 13.0
 x12 LEADERCONS0 40.0
 x13 profit 16020 
 x13 FOLLOWERCONS0 30.0
 x13 LEADERCONS0 60.0
 x14 profit 8000 
 x14 FOLLOWERCONS0 15.0
 x14 LEADERCONS0 0.0
 y0 profit 2568 
 y0 FOLLOWERCONS0 5.0
 y0 LEADERCONS0 0.0
 y1 profit 2365 
 y1 FOLLOWERCONS0 5.0
 y1 LEADERCONS0 0.0
 y2 profit 4350 
 y2 FOLLOWERCONS0 10.0
 y2 LEADERCONS0 0.0
 y3 profit 4975 
 y3 FOLLOWERCONS0 15.0
 y3 LEADERCONS0 0.0
 y4 profit 29400 
 y4 FOLLOWERCONS0 91.0
 y4 LEADERCONS0 0.0
 y5 profit 7471 
 y5 FOLLOWERCONS0 24.0
 y5 LEADERCONS0 0.0
 y6 profit 3840 
 y6 FOLLOWERCONS0 15.0
 y6 LEADERCONS0 0.0
 y7 profit 3575 
 y7 FOLLOWERCONS0 15.0
 y7 LEADERCONS0 0.0
 y8 profit 1125 
 y8 FOLLOWERCONS0 5.0
 y8 LEADERCONS0 0.0
 y9 profit 1790 
 y9 FOLLOWERCONS0 10.0
 y9 LEADERCONS0 0.0
 y10 profit 2450 
 y10 FOLLOWERCONS0 15.0
 y10 LEADERCONS0 0.0
 y11 profit 540 
 y11 FOLLOWERCONS0 10.0
 y11 LEADERCONS0 0.0
 y12 profit 445 
 y12 FOLLOWERCONS0 10.0
 y12 LEADERCONS0 0.0
 y13 profit 220 
 y13 FOLLOWERCONS0 10.0
 y13 LEADERCONS0 0.0
RHS
 rhs LEADERCONS0 266.0
 rhs FOLLOWERCONS0 215.0
BOUNDS
 LI  bound  x0  0.0000000
 UI  bound  x0  1.0000000
 LI  bound  x1  0.0000000
 UI  bound  x1  1.0000000
 LI  bound  x2  0.0000000
 UI  bound  x2  1.0000000
 LI  bound  x3  0.0000000
 UI  bound  x3  1.0000000
 LI  bound  x4  0.0000000
 UI  bound  x4  1.0000000
 LI  bound  x5  0.0000000
 UI  bound  x5  1.0000000
 LI  bound  x6  0.0000000
 UI  bound  x6  1.0000000
 LI  bound  x7  0.0000000
 UI  bound  x7  1.0000000
 LI  bound  x8  0.0000000
 UI  bound  x8  1.0000000
 LI  bound  x9  0.0000000
 UI  bound  x9  1.0000000
 LI  bound  x10  0.0000000
 UI  bound  x10  1.0000000
 LI  bound  x11  0.0000000
 UI  bound  x11  1.0000000
 LI  bound  x12  0.0000000
 UI  bound  x12  1.0000000
 LI  bound  x13  0.0000000
 UI  bound  x13  1.0000000
 LI  bound  x14  0.0000000
 UI  bound  x14  1.0000000
 LI  bound  y0  0.0000000
 UI  bound  y0  1.0000000
 LI  bound  y1  0.0000000
 UI  bound  y1  1.0000000
 LI  bound  y2  0.0000000
 UI  bound  y2  1.0000000
 LI  bound  y3  0.0000000
 UI  bound  y3  1.0000000
 LI  bound  y4  0.0000000
 UI  bound  y4  1.0000000
 LI  bound  y5  0.0000000
 UI  bound  y5  1.0000000
 LI  bound  y6  0.0000000
 UI  bound  y6  1.0000000
 LI  bound  y7  0.0000000
 UI  bound  y7  1.0000000
 LI  bound  y8  0.0000000
 UI  bound  y8  1.0000000
 LI  bound  y9  0.0000000
 UI  bound  y9  1.0000000
 LI  bound  y10  0.0000000
 UI  bound  y10  1.0000000
 LI  bound  y11  0.0000000
 UI  bound  y11  1.0000000
 LI  bound  y12  0.0000000
 UI  bound  y12  1.0000000
 LI  bound  y13  0.0000000
 UI  bound  y13  1.0000000
ENDATA