NAME QuadraticMultiKnapsack-pet7-1-25-25
ROWS
 N profit
 G LEADERCONS0 
 G LEADERCONS1 
 G LEADERCONS2 
 G LEADERCONS3 
 G FOLLOWERCONS0 
COLUMNS
 x0 profit 560 
 x0 FOLLOWERCONS0 38.0
 x0 LEADERCONS0 40.0
 x0 LEADERCONS1 16.0
 x0 LEADERCONS2 38.0
 x0 LEADERCONS3 8.0
 x1 profit 1125 
 x1 FOLLOWERCONS0 52.0
 x1 LEADERCONS0 91.0
 x1 LEADERCONS1 92.0
 x1 LEADERCONS2 39.0
 x1 LEADERCONS3 71.0
 x2 profit 300 
 x2 FOLLOWERCONS0 30.0
 x2 LEADERCONS0 10.0
 x2 LEADERCONS1 41.0
 x2 LEADERCONS2 32.0
 x2 LEADERCONS3 30.0
 x3 profit 620 
 x3 FOLLOWERCONS0 42.0
 x3 LEADERCONS0 30.0
 x3 LEADERCONS1 16.0
 x3 LEADERCONS2 71.0
 x3 LEADERCONS3 60.0
 x4 profit 2100 
 x4 FOLLOWERCONS0 170.0
 x4 LEADERCONS0 160.0
 x4 LEADERCONS1 150.0
 x4 LEADERCONS2 80.0
 x4 LEADERCONS3 200.0
 x5 profit 431 
 x5 FOLLOWERCONS0 9.0
 x5 LEADERCONS0 20.0
 x5 LEADERCONS1 23.0
 x5 LEADERCONS2 26.0
 x5 LEADERCONS3 18.0
 x6 profit 68 
 x6 FOLLOWERCONS0 7.0
 x6 LEADERCONS0 3.0
 x6 LEADERCONS1 4.0
 x6 LEADERCONS2 5.0
 x6 LEADERCONS3 6.0
 x7 profit 328 
 x7 FOLLOWERCONS0 20.0
 x7 LEADERCONS0 12.0
 x7 LEADERCONS1 18.0
 x7 LEADERCONS2 40.0
 x7 LEADERCONS3 30.0
 x8 profit 47 
 x8 FOLLOWERCONS0 0.0
 x8 LEADERCONS0 3.0
 x8 LEADERCONS1 6.0
 x8 LEADERCONS2 8.0
 x8 LEADERCONS3 4.0
 x9 profit 122 
 x9 FOLLOWERCONS0 3.0
 x9 LEADERCONS0 18.0
 x9 LEADERCONS1 0.0
 x9 LEADERCONS2 12.0
 x9 LEADERCONS3 8.0
 x10 profit 322 
 x10 FOLLOWERCONS0 21.0
 x10 LEADERCONS0 9.0
 x10 LEADERCONS1 12.0
 x10 LEADERCONS2 30.0
 x10 LEADERCONS3 31.0
 x11 profit 196 
 x11 FOLLOWERCONS0 4.0
 x11 LEADERCONS0 25.0
 x11 LEADERCONS1 8.0
 x11 LEADERCONS2 15.0
 x11 LEADERCONS3 6.0
 x12 profit 41 
 x12 FOLLOWERCONS0 1.0
 x12 LEADERCONS0 1.0
 x12 LEADERCONS1 2.0
 x12 LEADERCONS2 0.0
 x12 LEADERCONS3 3.0
 x13 profit 25 
 x13 FOLLOWERCONS0 2.0
 x13 LEADERCONS0 1.0
 x13 LEADERCONS1 1.0
 x13 LEADERCONS2 1.0
 x13 LEADERCONS3 0.0
 x14 profit 425 
 x14 FOLLOWERCONS0 14.0
 x14 LEADERCONS0 10.0
 x14 LEADERCONS1 0.0
 x14 LEADERCONS2 23.0
 x14 LEADERCONS3 18.0
 x15 profit 4260 
 x15 FOLLOWERCONS0 310.0
 x15 LEADERCONS0 280.0
 x15 LEADERCONS1 200.0
 x15 LEADERCONS2 100.0
 x15 LEADERCONS3 60.0
 x16 profit 416 
 x16 FOLLOWERCONS0 8.0
 x16 LEADERCONS0 10.0
 x16 LEADERCONS1 20.0
 x16 LEADERCONS2 0.0
 x16 LEADERCONS3 21.0
 x17 profit 115 
 x17 FOLLOWERCONS0 4.0
 x17 LEADERCONS0 8.0
 x17 LEADERCONS1 6.0
 x17 LEADERCONS2 20.0
 x17 LEADERCONS3 4.0
 x18 profit 82 
 x18 FOLLOWERCONS0 6.0
 x18 LEADERCONS0 1.0
 x18 LEADERCONS1 2.0
 x18 LEADERCONS2 3.0
 x18 LEADERCONS3 0.0
 x19 profit 22 
 x19 FOLLOWERCONS0 1.0
 x19 LEADERCONS0 1.0
 x19 LEADERCONS1 1.0
 x19 LEADERCONS2 0.0
 x19 LEADERCONS3 2.0
 x20 profit 631 
 x20 FOLLOWERCONS0 18.0
 x20 LEADERCONS0 49.0
 x20 LEADERCONS1 70.0
 x20 LEADERCONS2 40.0
 x20 LEADERCONS3 32.0
 x21 profit 132 
 x21 FOLLOWERCONS0 15.0
 x21 LEADERCONS0 8.0
 x21 LEADERCONS1 9.0
 x21 LEADERCONS2 6.0
 x21 LEADERCONS3 15.0
 x22 profit 420 
 x22 FOLLOWERCONS0 38.0
 x22 LEADERCONS0 21.0
 x22 LEADERCONS1 22.0
 x22 LEADERCONS2 8.0
 x22 LEADERCONS3 31.0
 x23 profit 86 
 x23 FOLLOWERCONS0 10.0
 x23 LEADERCONS0 6.0
 x23 LEADERCONS1 4.0
 x23 LEADERCONS2 0.0
 x23 LEADERCONS3 2.0
 x24 profit 42 
 x24 FOLLOWERCONS0 4.0
 x24 LEADERCONS0 1.0
 x24 LEADERCONS1 1.0
 x24 LEADERCONS2 6.0
 x24 LEADERCONS3 2.0
 y0 profit 103 
 y0 FOLLOWERCONS0 8.0
 y0 LEADERCONS0 5.0
 y0 LEADERCONS1 5.0
 y0 LEADERCONS2 4.0
 y0 LEADERCONS3 7.0
 y1 profit 215 
 y1 FOLLOWERCONS0 6.0
 y1 LEADERCONS0 10.0
 y1 LEADERCONS1 10.0
 y1 LEADERCONS2 22.0
 y1 LEADERCONS3 8.0
 y2 profit 81 
 y2 FOLLOWERCONS0 0.0
 y2 LEADERCONS0 8.0
 y2 LEADERCONS1 6.0
 y2 LEADERCONS2 4.0
 y2 LEADERCONS3 2.0
 y3 profit 91 
 y3 FOLLOWERCONS0 0.0
 y3 LEADERCONS0 2.0
 y3 LEADERCONS1 4.0
 y3 LEADERCONS2 6.0
 y3 LEADERCONS3 8.0
 y4 profit 26 
 y4 FOLLOWERCONS0 3.0
 y4 LEADERCONS0 1.0
 y4 LEADERCONS1 0.0
 y4 LEADERCONS2 1.0
 y4 LEADERCONS3 0.0
 y5 profit 49 
 y5 FOLLOWERCONS0 0.0
 y5 LEADERCONS0 0.0
 y5 LEADERCONS1 4.0
 y5 LEADERCONS2 5.0
 y5 LEADERCONS3 2.0
 y6 profit 420 
 y6 FOLLOWERCONS0 10.0
 y6 LEADERCONS0 10.0
 y6 LEADERCONS1 12.0
 y6 LEADERCONS2 14.0
 y6 LEADERCONS3 8.0
 y7 profit 316 
 y7 FOLLOWERCONS0 6.0
 y7 LEADERCONS0 42.0
 y7 LEADERCONS1 8.0
 y7 LEADERCONS2 8.0
 y7 LEADERCONS3 6.0
 y8 profit 72 
 y8 FOLLOWERCONS0 1.0
 y8 LEADERCONS0 6.0
 y8 LEADERCONS1 4.0
 y8 LEADERCONS2 2.0
 y8 LEADERCONS3 7.0
 y9 profit 71 
 y9 FOLLOWERCONS0 3.0
 y9 LEADERCONS0 4.0
 y9 LEADERCONS1 3.0
 y9 LEADERCONS2 8.0
 y9 LEADERCONS3 1.0
 y10 profit 49 
 y10 FOLLOWERCONS0 0.0
 y10 LEADERCONS0 8.0
 y10 LEADERCONS1 0.0
 y10 LEADERCONS2 0.0
 y10 LEADERCONS3 0.0
 y11 profit 108 
 y11 FOLLOWERCONS0 3.0
 y11 LEADERCONS0 0.0
 y11 LEADERCONS1 10.0
 y11 LEADERCONS2 20.0
 y11 LEADERCONS3 0.0
 y12 profit 116 
 y12 FOLLOWERCONS0 5.0
 y12 LEADERCONS0 10.0
 y12 LEADERCONS1 0.0
 y12 LEADERCONS2 0.0
 y12 LEADERCONS3 20.0
 y13 profit 90 
 y13 FOLLOWERCONS0 4.0
 y13 LEADERCONS0 1.0
 y13 LEADERCONS1 6.0
 y13 LEADERCONS2 0.0
 y13 LEADERCONS3 8.0
 y14 profit 738 
 y14 FOLLOWERCONS0 0.0
 y14 LEADERCONS0 40.0
 y14 LEADERCONS1 28.0
 y14 LEADERCONS2 6.0
 y14 LEADERCONS3 14.0
 y15 profit 1811 
 y15 FOLLOWERCONS0 30.0
 y15 LEADERCONS0 86.0
 y15 LEADERCONS1 93.0
 y15 LEADERCONS2 12.0
 y15 LEADERCONS3 20.0
 y16 profit 430 
 y16 FOLLOWERCONS0 12.0
 y16 LEADERCONS0 11.0
 y16 LEADERCONS1 9.0
 y16 LEADERCONS2 6.0
 y16 LEADERCONS3 2.0
 y17 profit 3060 
 y17 FOLLOWERCONS0 16.0
 y17 LEADERCONS0 120.0
 y17 LEADERCONS1 30.0
 y17 LEADERCONS2 80.0
 y17 LEADERCONS3 40.0
 y18 profit 215 
 y18 FOLLOWERCONS0 18.0
 y18 LEADERCONS0 8.0
 y18 LEADERCONS1 22.0
 y18 LEADERCONS2 13.0
 y18 LEADERCONS3 6.0
 y19 profit 58 
 y19 FOLLOWERCONS0 3.0
 y19 LEADERCONS0 3.0
 y19 LEADERCONS1 0.0
 y19 LEADERCONS2 6.0
 y19 LEADERCONS3 1.0
 y20 profit 296 
 y20 FOLLOWERCONS0 16.0
 y20 LEADERCONS0 32.0
 y20 LEADERCONS1 36.0
 y20 LEADERCONS2 22.0
 y20 LEADERCONS3 14.0
 y21 profit 620 
 y21 FOLLOWERCONS0 22.0
 y21 LEADERCONS0 28.0
 y21 LEADERCONS1 45.0
 y21 LEADERCONS2 14.0
 y21 LEADERCONS3 20.0
 y22 profit 418 
 y22 FOLLOWERCONS0 30.0
 y22 LEADERCONS0 13.0
 y22 LEADERCONS1 13.0
 y22 LEADERCONS2 0.0
 y22 LEADERCONS3 12.0
 y23 profit 47 
 y23 FOLLOWERCONS0 4.0
 y23 LEADERCONS0 2.0
 y23 LEADERCONS1 2.0
 y23 LEADERCONS2 1.0
 y23 LEADERCONS3 0.0
 y24 profit 81 
 y24 FOLLOWERCONS0 0.0
 y24 LEADERCONS0 4.0
 y24 LEADERCONS1 2.0
 y24 LEADERCONS2 2.0
 y24 LEADERCONS3 1.0
RHS
 rhs LEADERCONS0 472.0
 rhs LEADERCONS1 426.0
 rhs LEADERCONS2 309.0
 rhs LEADERCONS3 319.0
 rhs FOLLOWERCONS0 377.0
BOUNDS
 LI  bound  x0  0.0000000
 UI  bound  x0  1.0000000
 LI  bound  x1  0.0000000
 UI  bound  x1  1.0000000
 LI  bound  x2  0.0000000
 UI  bound  x2  1.0000000
 LI  bound  x3  0.0000000
 UI  bound  x3  1.0000000
 LI  bound  x4  0.0000000
 UI  bound  x4  1.0000000
 LI  bound  x5  0.0000000
 UI  bound  x5  1.0000000
 LI  bound  x6  0.0000000
 UI  bound  x6  1.0000000
 LI  bound  x7  0.0000000
 UI  bound  x7  1.0000000
 LI  bound  x8  0.0000000
 UI  bound  x8  1.0000000
 LI  bound  x9  0.0000000
 UI  bound  x9  1.0000000
 LI  bound  x10  0.0000000
 UI  bound  x10  1.0000000
 LI  bound  x11  0.0000000
 UI  bound  x11  1.0000000
 LI  bound  x12  0.0000000
 UI  bound  x12  1.0000000
 LI  bound  x13  0.0000000
 UI  bound  x13  1.0000000
 LI  bound  x14  0.0000000
 UI  bound  x14  1.0000000
 LI  bound  x15  0.0000000
 UI  bound  x15  1.0000000
 LI  bound  x16  0.0000000
 UI  bound  x16  1.0000000
 LI  bound  x17  0.0000000
 UI  bound  x17  1.0000000
 LI  bound  x18  0.0000000
 UI  bound  x18  1.0000000
 LI  bound  x19  0.0000000
 UI  bound  x19  1.0000000
 LI  bound  x20  0.0000000
 UI  bound  x20  1.0000000
 LI  bound  x21  0.0000000
 UI  bound  x21  1.0000000
 LI  bound  x22  0.0000000
 UI  bound  x22  1.0000000
 LI  bound  x23  0.0000000
 UI  bound  x23  1.0000000
 LI  bound  x24  0.0000000
 UI  bound  x24  1.0000000
 LI  bound  y0  0.0000000
 UI  bound  y0  1.0000000
 LI  bound  y1  0.0000000
 UI  bound  y1  1.0000000
 LI  bound  y2  0.0000000
 UI  bound  y2  1.0000000
 LI  bound  y3  0.0000000
 UI  bound  y3  1.0000000
 LI  bound  y4  0.0000000
 UI  bound  y4  1.0000000
 LI  bound  y5  0.0000000
 UI  bound  y5  1.0000000
 LI  bound  y6  0.0000000
 UI  bound  y6  1.0000000
 LI  bound  y7  0.0000000
 UI  bound  y7  1.0000000
 LI  bound  y8  0.0000000
 UI  bound  y8  1.0000000
 LI  bound  y9  0.0000000
 UI  bound  y9  1.0000000
 LI  bound  y10  0.0000000
 UI  bound  y10  1.0000000
 LI  bound  y11  0.0000000
 UI  bound  y11  1.0000000
 LI  bound  y12  0.0000000
 UI  bound  y12  1.0000000
 LI  bound  y13  0.0000000
 UI  bound  y13  1.0000000
 LI  bound  y14  0.0000000
 UI  bound  y14  1.0000000
 LI  bound  y15  0.0000000
 UI  bound  y15  1.0000000
 LI  bound  y16  0.0000000
 UI  bound  y16  1.0000000
 LI  bound  y17  0.0000000
 UI  bound  y17  1.0000000
 LI  bound  y18  0.0000000
 UI  bound  y18  1.0000000
 LI  bound  y19  0.0000000
 UI  bound  y19  1.0000000
 LI  bound  y20  0.0000000
 UI  bound  y20  1.0000000
 LI  bound  y21  0.0000000
 UI  bound  y21  1.0000000
 LI  bound  y22  0.0000000
 UI  bound  y22  1.0000000
 LI  bound  y23  0.0000000
 UI  bound  y23  1.0000000
 LI  bound  y24  0.0000000
 UI  bound  y24  1.0000000
ENDATA