NAME QuadraticMultiKnapsack-weish18-1-53-17
ROWS
 N profit
 G LEADERCONS0 
 G LEADERCONS1 
 G LEADERCONS2 
 G LEADERCONS3 
 G FOLLOWERCONS0 
COLUMNS
 x0 profit 360 
 x0 FOLLOWERCONS0 94.0
 x0 LEADERCONS0 7.0
 x0 LEADERCONS1 8.0
 x0 LEADERCONS2 3.0
 x0 LEADERCONS3 21.0
 x1 profit 83 
 x1 FOLLOWERCONS0 86.0
 x1 LEADERCONS0 0.0
 x1 LEADERCONS1 66.0
 x1 LEADERCONS2 74.0
 x1 LEADERCONS3 40.0
 x2 profit 59 
 x2 FOLLOWERCONS0 80.0
 x2 LEADERCONS0 30.0
 x2 LEADERCONS1 98.0
 x2 LEADERCONS2 88.0
 x2 LEADERCONS3 0.0
 x3 profit 130 
 x3 FOLLOWERCONS0 92.0
 x3 LEADERCONS0 22.0
 x3 LEADERCONS1 50.0
 x3 LEADERCONS2 50.0
 x3 LEADERCONS3 6.0
 x4 profit 431 
 x4 FOLLOWERCONS0 31.0
 x4 LEADERCONS0 80.0
 x4 LEADERCONS1 0.0
 x4 LEADERCONS2 55.0
 x4 LEADERCONS3 82.0
 x5 profit 67 
 x5 FOLLOWERCONS0 17.0
 x5 LEADERCONS0 94.0
 x5 LEADERCONS1 30.0
 x5 LEADERCONS2 19.0
 x5 LEADERCONS3 91.0
 x6 profit 230 
 x6 FOLLOWERCONS0 65.0
 x6 LEADERCONS0 11.0
 x6 LEADERCONS1 0.0
 x6 LEADERCONS2 0.0
 x6 LEADERCONS3 43.0
 x7 profit 52 
 x7 FOLLOWERCONS0 51.0
 x7 LEADERCONS0 81.0
 x7 LEADERCONS1 88.0
 x7 LEADERCONS2 6.0
 x7 LEADERCONS3 30.0
 x8 profit 93 
 x8 FOLLOWERCONS0 46.0
 x8 LEADERCONS0 70.0
 x8 LEADERCONS1 15.0
 x8 LEADERCONS2 30.0
 x8 LEADERCONS3 62.0
 x9 profit 125 
 x9 FOLLOWERCONS0 66.0
 x9 LEADERCONS0 64.0
 x9 LEADERCONS1 37.0
 x9 LEADERCONS2 62.0
 x9 LEADERCONS3 91.0
 x10 profit 670 
 x10 FOLLOWERCONS0 44.0
 x10 LEADERCONS0 59.0
 x10 LEADERCONS1 26.0
 x10 LEADERCONS2 17.0
 x10 LEADERCONS3 10.0
 x11 profit 892 
 x11 FOLLOWERCONS0 3.0
 x11 LEADERCONS0 18.0
 x11 LEADERCONS1 72.0
 x11 LEADERCONS2 81.0
 x11 LEADERCONS3 41.0
 x12 profit 600 
 x12 FOLLOWERCONS0 26.0
 x12 LEADERCONS0 0.0
 x12 LEADERCONS1 61.0
 x12 LEADERCONS2 25.0
 x12 LEADERCONS3 12.0
 x13 profit 38 
 x13 FOLLOWERCONS0 0.0
 x13 LEADERCONS0 36.0
 x13 LEADERCONS1 57.0
 x13 LEADERCONS2 46.0
 x13 LEADERCONS3 4.0
 x14 profit 48 
 x14 FOLLOWERCONS0 39.0
 x14 LEADERCONS0 3.0
 x14 LEADERCONS1 17.0
 x14 LEADERCONS2 67.0
 x14 LEADERCONS3 80.0
 x15 profit 147 
 x15 FOLLOWERCONS0 20.0
 x15 LEADERCONS0 8.0
 x15 LEADERCONS1 27.0
 x15 LEADERCONS2 28.0
 x15 LEADERCONS3 77.0
 x16 profit 78 
 x16 FOLLOWERCONS0 11.0
 x16 LEADERCONS0 15.0
 x16 LEADERCONS1 83.0
 x16 LEADERCONS2 36.0
 x16 LEADERCONS3 98.0
 x17 profit 256 
 x17 FOLLOWERCONS0 6.0
 x17 LEADERCONS0 42.0
 x17 LEADERCONS1 3.0
 x17 LEADERCONS2 8.0
 x17 LEADERCONS3 50.0
 x18 profit 63 
 x18 FOLLOWERCONS0 55.0
 x18 LEADERCONS0 9.0
 x18 LEADERCONS1 9.0
 x18 LEADERCONS2 1.0
 x18 LEADERCONS3 78.0
 x19 profit 17 
 x19 FOLLOWERCONS0 70.0
 x19 LEADERCONS0 0.0
 x19 LEADERCONS1 66.0
 x19 LEADERCONS2 52.0
 x19 LEADERCONS3 35.0
 x20 profit 120 
 x20 FOLLOWERCONS0 11.0
 x20 LEADERCONS0 42.0
 x20 LEADERCONS1 97.0
 x20 LEADERCONS2 19.0
 x20 LEADERCONS3 7.0
 x21 profit 164 
 x21 FOLLOWERCONS0 75.0
 x21 LEADERCONS0 47.0
 x21 LEADERCONS1 42.0
 x21 LEADERCONS2 37.0
 x21 LEADERCONS3 1.0
 x22 profit 432 
 x22 FOLLOWERCONS0 82.0
 x22 LEADERCONS0 52.0
 x22 LEADERCONS1 2.0
 x22 LEADERCONS2 27.0
 x22 LEADERCONS3 96.0
 x23 profit 35 
 x23 FOLLOWERCONS0 35.0
 x23 LEADERCONS0 32.0
 x23 LEADERCONS1 44.0
 x23 LEADERCONS2 62.0
 x23 LEADERCONS3 67.0
 x24 profit 92 
 x24 FOLLOWERCONS0 47.0
 x24 LEADERCONS0 26.0
 x24 LEADERCONS1 71.0
 x24 LEADERCONS2 39.0
 x24 LEADERCONS3 85.0
 x25 profit 110 
 x25 FOLLOWERCONS0 99.0
 x25 LEADERCONS0 48.0
 x25 LEADERCONS1 11.0
 x25 LEADERCONS2 84.0
 x25 LEADERCONS3 4.0
 x26 profit 22 
 x26 FOLLOWERCONS0 5.0
 x26 LEADERCONS0 55.0
 x26 LEADERCONS1 25.0
 x26 LEADERCONS2 16.0
 x26 LEADERCONS3 23.0
 x27 profit 42 
 x27 FOLLOWERCONS0 14.0
 x27 LEADERCONS0 6.0
 x27 LEADERCONS1 74.0
 x27 LEADERCONS2 14.0
 x27 LEADERCONS3 38.0
 x28 profit 50 
 x28 FOLLOWERCONS0 23.0
 x28 LEADERCONS0 29.0
 x28 LEADERCONS1 90.0
 x28 LEADERCONS2 21.0
 x28 LEADERCONS3 2.0
 x29 profit 323 
 x29 FOLLOWERCONS0 38.0
 x29 LEADERCONS0 84.0
 x29 LEADERCONS1 20.0
 x29 LEADERCONS2 5.0
 x29 LEADERCONS3 57.0
 x30 profit 514 
 x30 FOLLOWERCONS0 94.0
 x30 LEADERCONS0 2.0
 x30 LEADERCONS1 0.0
 x30 LEADERCONS2 60.0
 x30 LEADERCONS3 4.0
 x31 profit 28 
 x31 FOLLOWERCONS0 66.0
 x31 LEADERCONS0 4.0
 x31 LEADERCONS1 38.0
 x31 LEADERCONS2 82.0
 x31 LEADERCONS3 53.0
 x32 profit 87 
 x32 FOLLOWERCONS0 64.0
 x32 LEADERCONS0 18.0
 x32 LEADERCONS1 33.0
 x32 LEADERCONS2 72.0
 x32 LEADERCONS3 0.0
 x33 profit 73 
 x33 FOLLOWERCONS0 27.0
 x33 LEADERCONS0 56.0
 x33 LEADERCONS1 14.0
 x33 LEADERCONS2 89.0
 x33 LEADERCONS3 33.0
 x34 profit 78 
 x34 FOLLOWERCONS0 77.0
 x34 LEADERCONS0 7.0
 x34 LEADERCONS1 9.0
 x34 LEADERCONS2 16.0
 x34 LEADERCONS3 2.0
 x35 profit 15 
 x35 FOLLOWERCONS0 50.0
 x35 LEADERCONS0 29.0
 x35 LEADERCONS1 23.0
 x35 LEADERCONS2 5.0
 x35 LEADERCONS3 25.0
 x36 profit 26 
 x36 FOLLOWERCONS0 28.0
 x36 LEADERCONS0 93.0
 x36 LEADERCONS1 12.0
 x36 LEADERCONS2 29.0
 x36 LEADERCONS3 14.0
 x37 profit 78 
 x37 FOLLOWERCONS0 25.0
 x37 LEADERCONS0 44.0
 x37 LEADERCONS1 58.0
 x37 LEADERCONS2 7.0
 x37 LEADERCONS3 97.0
 x38 profit 210 
 x38 FOLLOWERCONS0 61.0
 x38 LEADERCONS0 71.0
 x38 LEADERCONS1 6.0
 x38 LEADERCONS2 80.0
 x38 LEADERCONS3 87.0
 x39 profit 36 
 x39 FOLLOWERCONS0 10.0
 x39 LEADERCONS0 3.0
 x39 LEADERCONS1 14.0
 x39 LEADERCONS2 97.0
 x39 LEADERCONS3 42.0
 x40 profit 85 
 x40 FOLLOWERCONS0 30.0
 x40 LEADERCONS0 86.0
 x40 LEADERCONS1 78.0
 x40 LEADERCONS2 41.0
 x40 LEADERCONS3 15.0
 x41 profit 189 
 x41 FOLLOWERCONS0 15.0
 x41 LEADERCONS0 66.0
 x41 LEADERCONS1 0.0
 x41 LEADERCONS2 46.0
 x41 LEADERCONS3 65.0
 x42 profit 274 
 x42 FOLLOWERCONS0 12.0
 x42 LEADERCONS0 31.0
 x42 LEADERCONS1 12.0
 x42 LEADERCONS2 15.0
 x42 LEADERCONS3 19.0
 x43 profit 43 
 x43 FOLLOWERCONS0 24.0
 x43 LEADERCONS0 65.0
 x43 LEADERCONS1 99.0
 x43 LEADERCONS2 92.0
 x43 LEADERCONS3 83.0
 x44 profit 33 
 x44 FOLLOWERCONS0 90.0
 x44 LEADERCONS0 0.0
 x44 LEADERCONS1 84.0
 x44 LEADERCONS2 51.0
 x44 LEADERCONS3 67.0
 x45 profit 10 
 x45 FOLLOWERCONS0 25.0
 x45 LEADERCONS0 79.0
 x45 LEADERCONS1 31.0
 x45 LEADERCONS2 76.0
 x45 LEADERCONS3 70.0
 x46 profit 19 
 x46 FOLLOWERCONS0 39.0
 x46 LEADERCONS0 20.0
 x46 LEADERCONS1 16.0
 x46 LEADERCONS2 57.0
 x46 LEADERCONS3 80.0
 x47 profit 389 
 x47 FOLLOWERCONS0 47.0
 x47 LEADERCONS0 65.0
 x47 LEADERCONS1 7.0
 x47 LEADERCONS2 90.0
 x47 LEADERCONS3 39.0
 x48 profit 276 
 x48 FOLLOWERCONS0 98.0
 x48 LEADERCONS0 52.0
 x48 LEADERCONS1 33.0
 x48 LEADERCONS2 10.0
 x48 LEADERCONS3 9.0
 x49 profit 312 
 x49 FOLLOWERCONS0 83.0
 x49 LEADERCONS0 13.0
 x49 LEADERCONS1 20.0
 x49 LEADERCONS2 37.0
 x49 LEADERCONS3 5.0
 x50 profit 94 
 x50 FOLLOWERCONS0 56.0
 x50 LEADERCONS0 48.0
 x50 LEADERCONS1 5.0
 x50 LEADERCONS2 25.0
 x50 LEADERCONS3 41.0
 x51 profit 68 
 x51 FOLLOWERCONS0 36.0
 x51 LEADERCONS0 14.0
 x51 LEADERCONS1 18.0
 x51 LEADERCONS2 93.0
 x51 LEADERCONS3 31.0
 x52 profit 73 
 x52 FOLLOWERCONS0 6.0
 x52 LEADERCONS0 5.0
 x52 LEADERCONS1 96.0
 x52 LEADERCONS2 5.0
 x52 LEADERCONS3 36.0
 y0 profit 192 
 y0 FOLLOWERCONS0 66.0
 y0 LEADERCONS0 72.0
 y0 LEADERCONS1 63.0
 y0 LEADERCONS2 39.0
 y0 LEADERCONS3 15.0
 y1 profit 41 
 y1 FOLLOWERCONS0 89.0
 y1 LEADERCONS0 14.0
 y1 LEADERCONS1 31.0
 y1 LEADERCONS2 0.0
 y1 LEADERCONS3 30.0
 y2 profit 163 
 y2 FOLLOWERCONS0 45.0
 y2 LEADERCONS0 39.0
 y2 LEADERCONS1 0.0
 y2 LEADERCONS2 97.0
 y2 LEADERCONS3 87.0
 y3 profit 16 
 y3 FOLLOWERCONS0 38.0
 y3 LEADERCONS0 46.0
 y3 LEADERCONS1 70.0
 y3 LEADERCONS2 6.0
 y3 LEADERCONS3 28.0
 y4 profit 40 
 y4 FOLLOWERCONS0 1.0
 y4 LEADERCONS0 27.0
 y4 LEADERCONS1 4.0
 y4 LEADERCONS2 96.0
 y4 LEADERCONS3 13.0
 y5 profit 195 
 y5 FOLLOWERCONS0 18.0
 y5 LEADERCONS0 11.0
 y5 LEADERCONS1 66.0
 y5 LEADERCONS2 2.0
 y5 LEADERCONS3 40.0
 y6 profit 138 
 y6 FOLLOWERCONS0 88.0
 y6 LEADERCONS0 91.0
 y6 LEADERCONS1 9.0
 y6 LEADERCONS2 81.0
 y6 LEADERCONS3 0.0
 y7 profit 73 
 y7 FOLLOWERCONS0 19.0
 y7 LEADERCONS0 15.0
 y7 LEADERCONS1 15.0
 y7 LEADERCONS2 69.0
 y7 LEADERCONS3 51.0
 y8 profit 152 
 y8 FOLLOWERCONS0 39.0
 y8 LEADERCONS0 25.0
 y8 LEADERCONS1 25.0
 y8 LEADERCONS2 4.0
 y8 LEADERCONS3 79.0
 y9 profit 400 
 y9 FOLLOWERCONS0 20.0
 y9 LEADERCONS0 0.0
 y9 LEADERCONS1 2.0
 y9 LEADERCONS2 32.0
 y9 LEADERCONS3 75.0
 y10 profit 26 
 y10 FOLLOWERCONS0 1.0
 y10 LEADERCONS0 94.0
 y10 LEADERCONS1 0.0
 y10 LEADERCONS2 78.0
 y10 LEADERCONS3 43.0
 y11 profit 14 
 y11 FOLLOWERCONS0 7.0
 y11 LEADERCONS0 53.0
 y11 LEADERCONS1 48.0
 y11 LEADERCONS2 65.0
 y11 LEADERCONS3 91.0
 y12 profit 170 
 y12 FOLLOWERCONS0 34.0
 y12 LEADERCONS0 48.0
 y12 LEADERCONS1 1.0
 y12 LEADERCONS2 83.0
 y12 LEADERCONS3 60.0
 y13 profit 205 
 y13 FOLLOWERCONS0 68.0
 y13 LEADERCONS0 27.0
 y13 LEADERCONS1 40.0
 y13 LEADERCONS2 62.0
 y13 LEADERCONS3 24.0
 y14 profit 57 
 y14 FOLLOWERCONS0 32.0
 y14 LEADERCONS0 99.0
 y14 LEADERCONS1 31.0
 y14 LEADERCONS2 89.0
 y14 LEADERCONS3 18.0
 y15 profit 369 
 y15 FOLLOWERCONS0 31.0
 y15 LEADERCONS0 6.0
 y15 LEADERCONS1 82.0
 y15 LEADERCONS2 45.0
 y15 LEADERCONS3 85.0
 y16 profit 435 
 y16 FOLLOWERCONS0 58.0
 y16 LEADERCONS0 17.0
 y16 LEADERCONS1 79.0
 y16 LEADERCONS2 53.0
 y16 LEADERCONS3 83.0
RHS
 rhs LEADERCONS0 1655.0
 rhs LEADERCONS1 1251.0
 rhs LEADERCONS2 1418.0
 rhs LEADERCONS3 850.0
 rhs FOLLOWERCONS0 468.0
BOUNDS
 LI  bound  x0  0.0000000
 UI  bound  x0  1.0000000
 LI  bound  x1  0.0000000
 UI  bound  x1  1.0000000
 LI  bound  x2  0.0000000
 UI  bound  x2  1.0000000
 LI  bound  x3  0.0000000
 UI  bound  x3  1.0000000
 LI  bound  x4  0.0000000
 UI  bound  x4  1.0000000
 LI  bound  x5  0.0000000
 UI  bound  x5  1.0000000
 LI  bound  x6  0.0000000
 UI  bound  x6  1.0000000
 LI  bound  x7  0.0000000
 UI  bound  x7  1.0000000
 LI  bound  x8  0.0000000
 UI  bound  x8  1.0000000
 LI  bound  x9  0.0000000
 UI  bound  x9  1.0000000
 LI  bound  x10  0.0000000
 UI  bound  x10  1.0000000
 LI  bound  x11  0.0000000
 UI  bound  x11  1.0000000
 LI  bound  x12  0.0000000
 UI  bound  x12  1.0000000
 LI  bound  x13  0.0000000
 UI  bound  x13  1.0000000
 LI  bound  x14  0.0000000
 UI  bound  x14  1.0000000
 LI  bound  x15  0.0000000
 UI  bound  x15  1.0000000
 LI  bound  x16  0.0000000
 UI  bound  x16  1.0000000
 LI  bound  x17  0.0000000
 UI  bound  x17  1.0000000
 LI  bound  x18  0.0000000
 UI  bound  x18  1.0000000
 LI  bound  x19  0.0000000
 UI  bound  x19  1.0000000
 LI  bound  x20  0.0000000
 UI  bound  x20  1.0000000
 LI  bound  x21  0.0000000
 UI  bound  x21  1.0000000
 LI  bound  x22  0.0000000
 UI  bound  x22  1.0000000
 LI  bound  x23  0.0000000
 UI  bound  x23  1.0000000
 LI  bound  x24  0.0000000
 UI  bound  x24  1.0000000
 LI  bound  x25  0.0000000
 UI  bound  x25  1.0000000
 LI  bound  x26  0.0000000
 UI  bound  x26  1.0000000
 LI  bound  x27  0.0000000
 UI  bound  x27  1.0000000
 LI  bound  x28  0.0000000
 UI  bound  x28  1.0000000
 LI  bound  x29  0.0000000
 UI  bound  x29  1.0000000
 LI  bound  x30  0.0000000
 UI  bound  x30  1.0000000
 LI  bound  x31  0.0000000
 UI  bound  x31  1.0000000
 LI  bound  x32  0.0000000
 UI  bound  x32  1.0000000
 LI  bound  x33  0.0000000
 UI  bound  x33  1.0000000
 LI  bound  x34  0.0000000
 UI  bound  x34  1.0000000
 LI  bound  x35  0.0000000
 UI  bound  x35  1.0000000
 LI  bound  x36  0.0000000
 UI  bound  x36  1.0000000
 LI  bound  x37  0.0000000
 UI  bound  x37  1.0000000
 LI  bound  x38  0.0000000
 UI  bound  x38  1.0000000
 LI  bound  x39  0.0000000
 UI  bound  x39  1.0000000
 LI  bound  x40  0.0000000
 UI  bound  x40  1.0000000
 LI  bound  x41  0.0000000
 UI  bound  x41  1.0000000
 LI  bound  x42  0.0000000
 UI  bound  x42  1.0000000
 LI  bound  x43  0.0000000
 UI  bound  x43  1.0000000
 LI  bound  x44  0.0000000
 UI  bound  x44  1.0000000
 LI  bound  x45  0.0000000
 UI  bound  x45  1.0000000
 LI  bound  x46  0.0000000
 UI  bound  x46  1.0000000
 LI  bound  x47  0.0000000
 UI  bound  x47  1.0000000
 LI  bound  x48  0.0000000
 UI  bound  x48  1.0000000
 LI  bound  x49  0.0000000
 UI  bound  x49  1.0000000
 LI  bound  x50  0.0000000
 UI  bound  x50  1.0000000
 LI  bound  x51  0.0000000
 UI  bound  x51  1.0000000
 LI  bound  x52  0.0000000
 UI  bound  x52  1.0000000
 LI  bound  y0  0.0000000
 UI  bound  y0  1.0000000
 LI  bound  y1  0.0000000
 UI  bound  y1  1.0000000
 LI  bound  y2  0.0000000
 UI  bound  y2  1.0000000
 LI  bound  y3  0.0000000
 UI  bound  y3  1.0000000
 LI  bound  y4  0.0000000
 UI  bound  y4  1.0000000
 LI  bound  y5  0.0000000
 UI  bound  y5  1.0000000
 LI  bound  y6  0.0000000
 UI  bound  y6  1.0000000
 LI  bound  y7  0.0000000
 UI  bound  y7  1.0000000
 LI  bound  y8  0.0000000
 UI  bound  y8  1.0000000
 LI  bound  y9  0.0000000
 UI  bound  y9  1.0000000
 LI  bound  y10  0.0000000
 UI  bound  y10  1.0000000
 LI  bound  y11  0.0000000
 UI  bound  y11  1.0000000
 LI  bound  y12  0.0000000
 UI  bound  y12  1.0000000
 LI  bound  y13  0.0000000
 UI  bound  y13  1.0000000
 LI  bound  y14  0.0000000
 UI  bound  y14  1.0000000
 LI  bound  y15  0.0000000
 UI  bound  y15  1.0000000
 LI  bound  y16  0.0000000
 UI  bound  y16  1.0000000
ENDATA