NAME QuadraticMultiKnapsack-weing6-1-14-14
ROWS
 N profit
 G LEADERCONS0 
 G FOLLOWERCONS0 
COLUMNS
 x0 profit 1898 
 x0 FOLLOWERCONS0 30.0
 x0 LEADERCONS0 45.0
 x1 profit 440 
 x1 FOLLOWERCONS0 20.0
 x1 LEADERCONS0 0.0
 x2 profit 22507 
 x2 FOLLOWERCONS0 125.0
 x2 LEADERCONS0 85.0
 x3 profit 270 
 x3 FOLLOWERCONS0 5.0
 x3 LEADERCONS0 150.0
 x4 profit 14148 
 x4 FOLLOWERCONS0 80.0
 x4 LEADERCONS0 65.0
 x5 profit 3100 
 x5 FOLLOWERCONS0 25.0
 x5 LEADERCONS0 95.0
 x6 profit 4650 
 x6 FOLLOWERCONS0 35.0
 x6 LEADERCONS0 30.0
 x7 profit 30800 
 x7 FOLLOWERCONS0 73.0
 x7 LEADERCONS0 0.0
 x8 profit 615 
 x8 FOLLOWERCONS0 12.0
 x8 LEADERCONS0 170.0
 x9 profit 4975 
 x9 FOLLOWERCONS0 15.0
 x9 LEADERCONS0 0.0
 x10 profit 1160 
 x10 FOLLOWERCONS0 15.0
 x10 LEADERCONS0 40.0
 x11 profit 4225 
 x11 FOLLOWERCONS0 40.0
 x11 LEADERCONS0 25.0
 x12 profit 510 
 x12 FOLLOWERCONS0 5.0
 x12 LEADERCONS0 20.0
 x13 profit 11880 
 x13 FOLLOWERCONS0 10.0
 x13 LEADERCONS0 0.0
 y0 profit 479 
 y0 FOLLOWERCONS0 10.0
 y0 LEADERCONS0 0.0
 y1 profit 440 
 y1 FOLLOWERCONS0 12.0
 y1 LEADERCONS0 25.0
 y2 profit 490 
 y2 FOLLOWERCONS0 10.0
 y2 LEADERCONS0 0.0
 y3 profit 330 
 y3 FOLLOWERCONS0 9.0
 y3 LEADERCONS0 0.0
 y4 profit 110 
 y4 FOLLOWERCONS0 0.0
 y4 LEADERCONS0 25.0
 y5 profit 560 
 y5 FOLLOWERCONS0 20.0
 y5 LEADERCONS0 0.0
 y6 profit 24355 
 y6 FOLLOWERCONS0 60.0
 y6 LEADERCONS0 165.0
 y7 profit 2885 
 y7 FOLLOWERCONS0 40.0
 y7 LEADERCONS0 0.0
 y8 profit 11748 
 y8 FOLLOWERCONS0 50.0
 y8 LEADERCONS0 85.0
 y9 profit 4550 
 y9 FOLLOWERCONS0 36.0
 y9 LEADERCONS0 0.0
 y10 profit 750 
 y10 FOLLOWERCONS0 49.0
 y10 LEADERCONS0 0.0
 y11 profit 3720 
 y11 FOLLOWERCONS0 40.0
 y11 LEADERCONS0 0.0
 y12 profit 1950 
 y12 FOLLOWERCONS0 19.0
 y12 LEADERCONS0 0.0
 y13 profit 10500 
 y13 FOLLOWERCONS0 150.0
 y13 LEADERCONS0 100.0
RHS
 rhs LEADERCONS0 563.0
 rhs FOLLOWERCONS0 498.0
BOUNDS
 LI  bound  x0  0.0000000
 UI  bound  x0  1.0000000
 LI  bound  x1  0.0000000
 UI  bound  x1  1.0000000
 LI  bound  x2  0.0000000
 UI  bound  x2  1.0000000
 LI  bound  x3  0.0000000
 UI  bound  x3  1.0000000
 LI  bound  x4  0.0000000
 UI  bound  x4  1.0000000
 LI  bound  x5  0.0000000
 UI  bound  x5  1.0000000
 LI  bound  x6  0.0000000
 UI  bound  x6  1.0000000
 LI  bound  x7  0.0000000
 UI  bound  x7  1.0000000
 LI  bound  x8  0.0000000
 UI  bound  x8  1.0000000
 LI  bound  x9  0.0000000
 UI  bound  x9  1.0000000
 LI  bound  x10  0.0000000
 UI  bound  x10  1.0000000
 LI  bound  x11  0.0000000
 UI  bound  x11  1.0000000
 LI  bound  x12  0.0000000
 UI  bound  x12  1.0000000
 LI  bound  x13  0.0000000
 UI  bound  x13  1.0000000
 LI  bound  y0  0.0000000
 UI  bound  y0  1.0000000
 LI  bound  y1  0.0000000
 UI  bound  y1  1.0000000
 LI  bound  y2  0.0000000
 UI  bound  y2  1.0000000
 LI  bound  y3  0.0000000
 UI  bound  y3  1.0000000
 LI  bound  y4  0.0000000
 UI  bound  y4  1.0000000
 LI  bound  y5  0.0000000
 UI  bound  y5  1.0000000
 LI  bound  y6  0.0000000
 UI  bound  y6  1.0000000
 LI  bound  y7  0.0000000
 UI  bound  y7  1.0000000
 LI  bound  y8  0.0000000
 UI  bound  y8  1.0000000
 LI  bound  y9  0.0000000
 UI  bound  y9  1.0000000
 LI  bound  y10  0.0000000
 UI  bound  y10  1.0000000
 LI  bound  y11  0.0000000
 UI  bound  y11  1.0000000
 LI  bound  y12  0.0000000
 UI  bound  y12  1.0000000
 LI  bound  y13  0.0000000
 UI  bound  y13  1.0000000
ENDATA