NAME QuadraticMultiKnapsack-pet2-1-5-5
ROWS
 N profit
 G LEADERCONS0 
 G LEADERCONS1 
 G LEADERCONS2 
 G LEADERCONS3 
 G LEADERCONS4 
 G LEADERCONS5 
 G LEADERCONS6 
 G LEADERCONS7 
 G LEADERCONS8 
 G FOLLOWERCONS0 
COLUMNS
 x0 profit 6001 
 x0 FOLLOWERCONS0 65.0
 x0 LEADERCONS0 20.0
 x0 LEADERCONS1 20.0
 x0 LEADERCONS2 60.0
 x0 LEADERCONS3 60.0
 x0 LEADERCONS4 60.0
 x0 LEADERCONS5 60.0
 x0 LEADERCONS6 5.0
 x0 LEADERCONS7 45.0
 x0 LEADERCONS8 55.0
 x1 profit 3105 
 x1 FOLLOWERCONS0 14.0
 x1 LEADERCONS0 5.0
 x1 LEADERCONS1 7.0
 x1 LEADERCONS2 3.0
 x1 LEADERCONS3 8.0
 x1 LEADERCONS4 13.0
 x1 LEADERCONS5 13.0
 x1 LEADERCONS6 2.0
 x1 LEADERCONS7 14.0
 x1 LEADERCONS8 14.0
 x2 profit 18000 
 x2 FOLLOWERCONS0 80.0
 x2 LEADERCONS0 100.0
 x2 LEADERCONS1 130.0
 x2 LEADERCONS2 50.0
 x2 LEADERCONS3 70.0
 x2 LEADERCONS4 70.0
 x2 LEADERCONS5 70.0
 x2 LEADERCONS6 20.0
 x2 LEADERCONS7 80.0
 x2 LEADERCONS8 80.0
 x3 profit 38500 
 x3 FOLLOWERCONS0 220.0
 x3 LEADERCONS0 200.0
 x3 LEADERCONS1 280.0
 x3 LEADERCONS2 100.0
 x3 LEADERCONS3 200.0
 x3 LEADERCONS4 250.0
 x3 LEADERCONS5 280.0
 x3 LEADERCONS6 100.0
 x3 LEADERCONS7 180.0
 x3 LEADERCONS8 200.0
 x4 profit 186 
 x4 FOLLOWERCONS0 6.0
 x4 LEADERCONS0 2.0
 x4 LEADERCONS1 2.0
 x4 LEADERCONS2 4.0
 x4 LEADERCONS3 4.0
 x4 LEADERCONS4 4.0
 x4 LEADERCONS5 4.0
 x4 LEADERCONS6 2.0
 x4 LEADERCONS7 6.0
 x4 LEADERCONS8 6.0
 y0 profit 1987 
 y0 FOLLOWERCONS0 10.0
 y0 LEADERCONS0 4.0
 y0 LEADERCONS1 8.0
 y0 LEADERCONS2 2.0
 y0 LEADERCONS3 6.0
 y0 LEADERCONS4 10.0
 y0 LEADERCONS5 10.0
 y0 LEADERCONS6 5.0
 y0 LEADERCONS7 10.0
 y0 LEADERCONS8 10.0
 y1 profit 8820 
 y1 FOLLOWERCONS0 50.0
 y1 LEADERCONS0 60.0
 y1 LEADERCONS1 110.0
 y1 LEADERCONS2 20.0
 y1 LEADERCONS3 40.0
 y1 LEADERCONS4 60.0
 y1 LEADERCONS5 70.0
 y1 LEADERCONS6 10.0
 y1 LEADERCONS7 40.0
 y1 LEADERCONS8 50.0
 y2 profit 42000 
 y2 FOLLOWERCONS0 180.0
 y2 LEADERCONS0 150.0
 y2 LEADERCONS1 210.0
 y2 LEADERCONS2 40.0
 y2 LEADERCONS3 70.0
 y2 LEADERCONS4 90.0
 y2 LEADERCONS5 105.0
 y2 LEADERCONS6 60.0
 y2 LEADERCONS7 100.0
 y2 LEADERCONS8 140.0
 y3 profit 4025 
 y3 FOLLOWERCONS0 30.0
 y3 LEADERCONS0 80.0
 y3 LEADERCONS1 100.0
 y3 LEADERCONS2 6.0
 y3 LEADERCONS3 16.0
 y3 LEADERCONS4 20.0
 y3 LEADERCONS5 22.0
 y3 LEADERCONS6 0.0
 y3 LEADERCONS7 20.0
 y3 LEADERCONS8 30.0
 y4 profit 3270 
 y4 FOLLOWERCONS0 50.0
 y4 LEADERCONS0 40.0
 y4 LEADERCONS1 40.0
 y4 LEADERCONS2 12.0
 y4 LEADERCONS3 20.0
 y4 LEADERCONS4 24.0
 y4 LEADERCONS5 28.0
 y4 LEADERCONS6 0.0
 y4 LEADERCONS7 0.0
 y4 LEADERCONS8 40.0
RHS
 rhs LEADERCONS0 211.0
 rhs LEADERCONS1 367.0
 rhs LEADERCONS2 97.0
 rhs LEADERCONS3 134.0
 rhs LEADERCONS4 161.0
 rhs LEADERCONS5 182.0
 rhs LEADERCONS6 4.0
 rhs LEADERCONS7 135.0
 rhs LEADERCONS8 185.0
 rhs FOLLOWERCONS0 225.0
BOUNDS
 LI  bound  x0  0.0000000
 UI  bound  x0  1.0000000
 LI  bound  x1  0.0000000
 UI  bound  x1  1.0000000
 LI  bound  x2  0.0000000
 UI  bound  x2  1.0000000
 LI  bound  x3  0.0000000
 UI  bound  x3  1.0000000
 LI  bound  x4  0.0000000
 UI  bound  x4  1.0000000
 LI  bound  y0  0.0000000
 UI  bound  y0  1.0000000
 LI  bound  y1  0.0000000
 UI  bound  y1  1.0000000
 LI  bound  y2  0.0000000
 UI  bound  y2  1.0000000
 LI  bound  y3  0.0000000
 UI  bound  y3  1.0000000
 LI  bound  y4  0.0000000
 UI  bound  y4  1.0000000
ENDATA