NAME QuadraticMultiKnapsack-pb5-1-10-10
ROWS
 N profit
 G LEADERCONS0 
 G LEADERCONS1 
 G LEADERCONS2 
 G LEADERCONS3 
 G LEADERCONS4 
 G LEADERCONS5 
 G LEADERCONS6 
 G LEADERCONS7 
 G LEADERCONS8 
 G FOLLOWERCONS0 
COLUMNS
 x0 profit 245 
 x0 FOLLOWERCONS0 41.0
 x0 LEADERCONS0 77.0
 x0 LEADERCONS1 21.0
 x0 LEADERCONS2 72.0
 x0 LEADERCONS3 76.0
 x0 LEADERCONS4 11.0
 x0 LEADERCONS5 28.0
 x0 LEADERCONS6 32.0
 x0 LEADERCONS7 77.0
 x0 LEADERCONS8 53.0
 x1 profit 177 
 x1 FOLLOWERCONS0 68.0
 x1 LEADERCONS0 12.0
 x1 LEADERCONS1 85.0
 x1 LEADERCONS2 58.0
 x1 LEADERCONS3 14.0
 x1 LEADERCONS4 62.0
 x1 LEADERCONS5 85.0
 x1 LEADERCONS6 42.0
 x1 LEADERCONS7 18.0
 x1 LEADERCONS8 83.0
 x2 profit 291 
 x2 FOLLOWERCONS0 47.0
 x2 LEADERCONS0 57.0
 x2 LEADERCONS1 87.0
 x2 LEADERCONS2 72.0
 x2 LEADERCONS3 86.0
 x2 LEADERCONS4 93.0
 x2 LEADERCONS5 3.0
 x2 LEADERCONS6 54.0
 x2 LEADERCONS7 87.0
 x2 LEADERCONS8 68.0
 x3 profit 237 
 x3 FOLLOWERCONS0 16.0
 x3 LEADERCONS0 7.0
 x3 LEADERCONS1 82.0
 x3 LEADERCONS2 93.0
 x3 LEADERCONS3 37.0
 x3 LEADERCONS4 56.0
 x3 LEADERCONS5 31.0
 x3 LEADERCONS6 90.0
 x3 LEADERCONS7 61.0
 x3 LEADERCONS8 50.0
 x4 profit 114 
 x4 FOLLOWERCONS0 5.0
 x4 LEADERCONS0 21.0
 x4 LEADERCONS1 26.0
 x4 LEADERCONS2 3.0
 x4 LEADERCONS3 12.0
 x4 LEADERCONS4 80.0
 x4 LEADERCONS5 93.0
 x4 LEADERCONS6 59.0
 x4 LEADERCONS7 64.0
 x4 LEADERCONS8 86.0
 x5 profit 237 
 x5 FOLLOWERCONS0 9.0
 x5 LEADERCONS0 20.0
 x5 LEADERCONS1 61.0
 x5 LEADERCONS2 93.0
 x5 LEADERCONS3 48.0
 x5 LEADERCONS4 52.0
 x5 LEADERCONS5 44.0
 x5 LEADERCONS6 98.0
 x5 LEADERCONS7 37.0
 x5 LEADERCONS8 20.0
 x6 profit 194 
 x6 FOLLOWERCONS0 35.0
 x6 LEADERCONS0 85.0
 x6 LEADERCONS1 36.0
 x6 LEADERCONS2 17.0
 x6 LEADERCONS3 54.0
 x6 LEADERCONS4 93.0
 x6 LEADERCONS5 93.0
 x6 LEADERCONS6 94.0
 x6 LEADERCONS7 41.0
 x6 LEADERCONS8 19.0
 x7 profit 211 
 x7 FOLLOWERCONS0 62.0
 x7 LEADERCONS0 52.0
 x7 LEADERCONS1 1.0
 x7 LEADERCONS2 54.0
 x7 LEADERCONS3 58.0
 x7 LEADERCONS4 38.0
 x7 LEADERCONS5 73.0
 x7 LEADERCONS6 88.0
 x7 LEADERCONS7 39.0
 x7 LEADERCONS8 58.0
 x8 profit 231 
 x8 FOLLOWERCONS0 88.0
 x8 LEADERCONS0 72.0
 x8 LEADERCONS1 14.0
 x8 LEADERCONS2 92.0
 x8 LEADERCONS3 32.0
 x8 LEADERCONS4 89.0
 x8 LEADERCONS5 35.0
 x8 LEADERCONS6 59.0
 x8 LEADERCONS7 3.0
 x8 LEADERCONS8 48.0
 x9 profit 211 
 x9 FOLLOWERCONS0 73.0
 x9 LEADERCONS0 90.0
 x9 LEADERCONS1 19.0
 x9 LEADERCONS2 79.0
 x9 LEADERCONS3 15.0
 x9 LEADERCONS4 33.0
 x9 LEADERCONS5 28.0
 x9 LEADERCONS6 86.0
 x9 LEADERCONS7 18.0
 x9 LEADERCONS8 99.0
 y0 profit 97 
 y0 FOLLOWERCONS0 64.0
 y0 LEADERCONS0 62.0
 y0 LEADERCONS1 74.0
 y0 LEADERCONS2 12.0
 y0 LEADERCONS3 6.0
 y0 LEADERCONS4 17.0
 y0 LEADERCONS5 11.0
 y0 LEADERCONS6 10.0
 y0 LEADERCONS7 20.0
 y0 LEADERCONS8 57.0
 y1 profit 168 
 y1 FOLLOWERCONS0 96.0
 y1 LEADERCONS0 71.0
 y1 LEADERCONS1 26.0
 y1 LEADERCONS2 20.0
 y1 LEADERCONS3 54.0
 y1 LEADERCONS4 32.0
 y1 LEADERCONS5 37.0
 y1 LEADERCONS6 0.0
 y1 LEADERCONS7 55.0
 y1 LEADERCONS8 67.0
 y2 profit 174 
 y2 FOLLOWERCONS0 9.0
 y2 LEADERCONS0 93.0
 y2 LEADERCONS1 85.0
 y2 LEADERCONS2 24.0
 y2 LEADERCONS3 32.0
 y2 LEADERCONS4 35.0
 y2 LEADERCONS5 99.0
 y2 LEADERCONS6 59.0
 y2 LEADERCONS7 50.0
 y2 LEADERCONS8 21.0
 y3 profit 134 
 y3 FOLLOWERCONS0 62.0
 y3 LEADERCONS0 8.0
 y3 LEADERCONS1 24.0
 y3 LEADERCONS2 30.0
 y3 LEADERCONS3 32.0
 y3 LEADERCONS4 76.0
 y3 LEADERCONS5 73.0
 y3 LEADERCONS6 15.0
 y3 LEADERCONS7 30.0
 y3 LEADERCONS8 36.0
 y4 profit 308 
 y4 FOLLOWERCONS0 79.0
 y4 LEADERCONS0 79.0
 y4 LEADERCONS1 56.0
 y4 LEADERCONS2 99.0
 y4 LEADERCONS3 71.0
 y4 LEADERCONS4 51.0
 y4 LEADERCONS5 91.0
 y4 LEADERCONS6 76.0
 y4 LEADERCONS7 51.0
 y4 LEADERCONS8 41.0
 y5 profit 271 
 y5 FOLLOWERCONS0 27.0
 y5 LEADERCONS0 68.0
 y5 LEADERCONS1 63.0
 y5 LEADERCONS2 79.0
 y5 LEADERCONS3 61.0
 y5 LEADERCONS4 31.0
 y5 LEADERCONS5 67.0
 y5 LEADERCONS6 97.0
 y5 LEADERCONS7 92.0
 y5 LEADERCONS8 13.0
 y6 profit 131 
 y6 FOLLOWERCONS0 16.0
 y6 LEADERCONS0 68.0
 y6 LEADERCONS1 0.0
 y6 LEADERCONS2 15.0
 y6 LEADERCONS3 29.0
 y6 LEADERCONS4 40.0
 y6 LEADERCONS5 7.0
 y6 LEADERCONS6 55.0
 y6 LEADERCONS7 88.0
 y6 LEADERCONS8 34.0
 y7 profit 211 
 y7 FOLLOWERCONS0 24.0
 y7 LEADERCONS0 44.0
 y7 LEADERCONS1 12.0
 y7 LEADERCONS2 11.0
 y7 LEADERCONS3 92.0
 y7 LEADERCONS4 73.0
 y7 LEADERCONS5 95.0
 y7 LEADERCONS6 87.0
 y7 LEADERCONS7 55.0
 y7 LEADERCONS8 94.0
 y8 profit 97 
 y8 FOLLOWERCONS0 30.0
 y8 LEADERCONS0 13.0
 y8 LEADERCONS1 1.0
 y8 LEADERCONS2 8.0
 y8 LEADERCONS3 20.0
 y8 LEADERCONS4 42.0
 y8 LEADERCONS5 15.0
 y8 LEADERCONS6 70.0
 y8 LEADERCONS7 60.0
 y8 LEADERCONS8 50.0
 y9 profit 282 
 y9 FOLLOWERCONS0 60.0
 y9 LEADERCONS0 52.0
 y9 LEADERCONS1 39.0
 y9 LEADERCONS2 89.0
 y9 LEADERCONS3 73.0
 y9 LEADERCONS4 78.0
 y9 LEADERCONS5 97.0
 y9 LEADERCONS6 1.0
 y9 LEADERCONS7 86.0
 y9 LEADERCONS8 50.0
RHS
 rhs LEADERCONS0 588.0
 rhs LEADERCONS1 361.0
 rhs LEADERCONS2 397.0
 rhs LEADERCONS3 409.0
 rhs LEADERCONS4 531.0
 rhs LEADERCONS5 458.0
 rhs LEADERCONS6 548.0
 rhs LEADERCONS7 521.0
 rhs LEADERCONS8 452.0
 rhs FOLLOWERCONS0 385.0
BOUNDS
 LI  bound  x0  0.0000000
 UI  bound  x0  1.0000000
 LI  bound  x1  0.0000000
 UI  bound  x1  1.0000000
 LI  bound  x2  0.0000000
 UI  bound  x2  1.0000000
 LI  bound  x3  0.0000000
 UI  bound  x3  1.0000000
 LI  bound  x4  0.0000000
 UI  bound  x4  1.0000000
 LI  bound  x5  0.0000000
 UI  bound  x5  1.0000000
 LI  bound  x6  0.0000000
 UI  bound  x6  1.0000000
 LI  bound  x7  0.0000000
 UI  bound  x7  1.0000000
 LI  bound  x8  0.0000000
 UI  bound  x8  1.0000000
 LI  bound  x9  0.0000000
 UI  bound  x9  1.0000000
 LI  bound  y0  0.0000000
 UI  bound  y0  1.0000000
 LI  bound  y1  0.0000000
 UI  bound  y1  1.0000000
 LI  bound  y2  0.0000000
 UI  bound  y2  1.0000000
 LI  bound  y3  0.0000000
 UI  bound  y3  1.0000000
 LI  bound  y4  0.0000000
 UI  bound  y4  1.0000000
 LI  bound  y5  0.0000000
 UI  bound  y5  1.0000000
 LI  bound  y6  0.0000000
 UI  bound  y6  1.0000000
 LI  bound  y7  0.0000000
 UI  bound  y7  1.0000000
 LI  bound  y8  0.0000000
 UI  bound  y8  1.0000000
 LI  bound  y9  0.0000000
 UI  bound  y9  1.0000000
ENDATA